init 35225 {}
35225 36583 {}
update 35224 {}
35224 38023 {}
finish 35223 {}
finish 38034 {}
finish 38366 {}
finish 38371 {}
finish 38387 {}
finish 38399 {}
35223 38074 {}
38034 38035 {}
38034 38036 {}
38366 38367 {}
38371 38377 {}
38387 38388 {}
38399 38400 {}
blocklen_519 35215 {}
blocklen_519 38027 {}
35215 38158 {}
35215 38414 {}
38027 38028 {}
blocklen_520 35216 {}
blocklen_520 38027 {}
blocklen_520 38160 {}
35216 38157 {}
38160 38161 {}
blocklen_521 35217 {}
blocklen_521 38029 {}
blocklen_521 38166 {}
35217 38156 {}
38029 38030 {}
38166 38167 {}
blocklen_522 35218 {}
blocklen_522 38029 {}
blocklen_522 38155 {}
35218 38154 {}
38155 38172 {}
38155 38175 {}
38155 38381 {}
blocklen_523 35219 {}
blocklen_523 38021 {}
blocklen_523 38151 {}
35219 38150 {}
38021 38022 {}
38151 38152 {}
blocklen_524 35220 {}
blocklen_524 38021 {}
blocklen_524 38179 {}
35220 38149 {}
38179 38180 {}
blocklen_525 36036 {}
blocklen_525 38185 {}
36036 38023 {}
36036 38148 {}
38185 38186 {}
35179 36573 {}
35179 36575 {}
36573 36574 {}
36575 36576 {}
36575 38042 {}
35180 42372 {}
35180 42400 {}
42372 42373 {}
42400 42401 {}
35181 42372 {}
35181 42377 {}
42377 42378 {}
35182 42379 {}
35182 42386 {}
42379 42380 {}
42386 42387 {}
35183 42370 {}
35183 42386 {}
42370 42371 {}
35184 44182 {}
35184 44194 {}
44182 44183 {}
44194 44195 {}
35185 44171 {}
35185 44182 {}
44171 44172 {}
35186 44166 {}
35186 44173 {}
44166 44167 {}
44173 44174 {}
35187 44173 {}
35187 44180 {}
44180 44181 {}
35188 56384 {}
35188 56396 {}
56384 56385 {}
56396 56397 {}
35189 56396 {}
35189 56430 {}
56430 56431 {}
35190 56370 {}
35190 56377 {}
56370 56371 {}
56377 56378 {}
35191 56370 {}
35191 56408 {}
56408 56409 {}
35192 58185 {}
35192 58199 {}
58185 58186 {}
58199 58200 {}
35193 58178 {}
35193 58185 {}
58178 58179 {}
35194 58180 {}
35194 58208 {}
58180 58181 {}
58208 58209 {}
35195 58208 {}
35195 58218 {}
58218 58219 {}
35196 50444 {}
35196 50484 {}
50444 50445 {}
50484 50485 {}
35197 50465 {}
35197 50484 {}
50465 50466 {}
35198 50446 {}
35198 50482 {}
50446 50447 {}
50482 50483 {}
35199 50460 {}
35199 50482 {}
50460 50461 {}
35200 52259 {}
35200 52304 {}
52259 52260 {}
52304 52305 {}
35201 52282 {}
35201 52304 {}
52282 52283 {}
35202 52261 {}
35202 52273 {}
52261 52262 {}
52273 52274 {}
35203 52252 {}
35203 52261 {}
52252 52253 {}
35204 38877 {}
35204 38887 {}
38877 38878 {}
38887 38888 {}
35205 38868 {}
35205 38877 {}
38868 38869 {}
35206 38899 {}
35206 38908 {}
38899 38900 {}
38908 38909 {}
35207 38875 {}
35207 38908 {}
38875 38876 {}
35208 40688 {}
35208 40707 {}
40688 40689 {}
40707 40708 {}
35209 40688 {}
35209 40702 {}
40702 40703 {}
35210 40672 {}
35210 40679 {}
40672 40673 {}
40679 40680 {}
35211 40672 {}
35211 40686 {}
40686 40687 {}
35212 38056 {}
35212 38091 {}
38056 38057 {}
38091 38093 {}
35213 36593 {}
35213 36595 {}
36593 36594 {}
36593 38044 {}
36595 36596 {}
36595 38050 {}
36595 38067 {}
35214 36573 {}
35214 38040 {}
35214 38071 {}
35214 64472 {}
38040 38041 {}
38040 38042 {}
38040 42369 {}
38040 46632 {}
38040 47920 {}
38040 48137 {}
38040 48661 {}
38040 49845 {}
38040 50021 {}
38040 50194 {}
38040 50293 {}
38040 50316 {}
38040 62614 {}
38040 62739 {}
38040 62842 {}
38040 62895 {}
38040 62948 {}
38040 62973 {}
38040 63028 {}
38040 63155 {}
38040 63206 {}
38040 63559 {}
38040 63662 {}
38040 63743 {}
38040 63820 {}
38040 63847 {}
38040 64026 {}
38040 64053 {}
38040 64080 {}
38040 64181 {}
38040 64190 {}
38040 64233 {}
38040 64258 {}
38040 64263 {}
38040 64298 {}
38040 64341 {}
38040 64352 {}
38040 64365 {}
38040 64473 {}
38071 38072 {}
64472 64474 {}
38158 38159 {}
38158 38404 {}
38414 38415 {}
38414 38416 {}
38157 38161 {}
38157 38164 {}
38156 38167 {}
38156 38170 {}
38154 38173 {}
38154 38174 {}
38154 38381 {}
38150 38152 {}
38150 38177 {}
38149 38180 {}
38149 38183 {}
35221 38080 {}
38080 38081 {}
38080 38082 {}
38080 38087 {}
35222 38085 {}
38085 38086 {}
38085 38090 {}
38085 38091 {}
38074 38075 {}
38074 38076 {}
38074 38144 {}
38074 38245 {}
38074 38263 {}
38074 38281 {}
38074 38299 {}
38074 38322 {}
38074 38335 {}
38074 38410 {}
38074 38446 {}
38074 38465 {}
38074 38529 {}
38074 38547 {}
38074 38582 {}
38023 38024 {}
36583 36584 {}
36583 36600 {}
36583 36624 {}
36583 36637 {}
36583 36650 {}
36583 36663 {}
36583 36676 {}
36583 36689 {}
36583 36702 {}
36583 36715 {}
36583 36750 {}
36583 36774 {}
36583 36798 {}
36583 36833 {}
36583 36857 {}
36583 36881 {}
36583 36916 {}
36583 36929 {}
36583 36942 {}
36583 36966 {}
36583 36979 {}
36583 37014 {}
36583 37027 {}
36583 37040 {}
36583 37053 {}
36583 37077 {}
36583 37090 {}
36583 37103 {}
36583 37127 {}
36583 37140 {}
36583 37186 {}
36583 37199 {}
36583 37212 {}
36583 37225 {}
36583 37260 {}
36583 37284 {}
36583 37341 {}
36583 37365 {}
36583 37378 {}
36583 37391 {}
36583 37415 {}
36583 37439 {}
36583 37452 {}
36583 37465 {}
36583 37478 {}
36583 37513 {}
36583 37526 {}
36583 37550 {}
36583 37563 {}
36583 37587 {}
36583 37600 {}
36583 37613 {}
36583 37637 {}
36583 37650 {}
36583 37663 {}
36583 37676 {}
36583 37722 {}
36583 37757 {}
36583 37770 {}
36583 37805 {}
36583 37818 {}
36583 37831 {}
36583 37877 {}
36583 37934 {}
36583 37947 {}
36583 37971 {}
36583 37995 {}
36583 38008 {}
36583 38038 {}
36583 38050 {}
36583 38668 {}
36583 66319 {}
36583 66354 {}
36583 66367 {}
36583 66413 {}
36583 66437 {}
36583 66450 {}
36583 66485 {}
36583 66498 {}
36583 66566 {}
36583 66579 {}
36583 66592 {}
36583 66605 {}
36583 66618 {}
36583 66642 {}
36583 66655 {}
36583 66679 {}
36583 66703 {}
36583 66716 {}
36583 66740 {}
36583 66764 {}
36583 66788 {}
36583 66801 {}
36583 66836 {}
36583 66849 {}
36583 66873 {}
36583 66886 {}
36583 66899 {}
36583 66912 {}
36583 66980 {}
36583 66993 {}
36583 67006 {}
36583 67019 {}
36583 67032 {}
36583 67045 {}
36583 67113 {}
36583 67126 {}
36583 67172 {}
36583 67218 {}
36583 67242 {}
36583 67255 {}
36583 67279 {}
36583 67303 {}
36583 67371 {}
36583 67384 {}
36583 67408 {}
36583 67421 {}
36583 67456 {}
36583 67469 {}
36583 67482 {}
36583 67495 {}
36583 67508 {}
36583 67521 {}
36583 67534 {}
36583 67547 {}
36583 67582 {}
36583 67617 {}
36583 67641 {}
36583 67676 {}
36583 67689 {}
36583 67702 {}
36583 67759 {}
36583 67805 {}
36583 67829 {}
36583 67864 {}
36583 67888 {}
36583 67901 {}
36583 67914 {}
36583 67949 {}
35226 38158 {}
35226 38417 {}
38417 38418 {}
35227 38157 {}
35227 38410 {}
35227 38413 {}
38410 38411 {}
38413 38421 {}
35228 38156 {}
35228 38403 {}
38403 38423 {}
35229 38154 {}
35229 38393 {}
38393 38425 {}
35230 38150 {}
35230 38380 {}
38380 38427 {}
35231 38149 {}
35231 38369 {}
38369 38429 {}
35232 40817 {}
35232 52397 {}
35232 66698 {}
40817 40818 {}
52397 52398 {}
66698 66702 {}
35233 40816 {}
35233 44309 {}
35233 66314 {}
40816 40818 {}
44309 44310 {}
66314 66318 {}
35234 40798 {}
35234 52378 {}
35234 66711 {}
40798 40799 {}
52378 52379 {}
66711 66715 {}
35235 40797 {}
35235 44290 {}
35235 66327 {}
40797 40799 {}
44290 44291 {}
66327 66331 {}
35236 40776 {}
35236 52357 {}
35236 66724 {}
40776 40778 {}
52357 52358 {}
66724 66728 {}
35237 40777 {}
35237 44269 {}
35237 66338 {}
40777 40778 {}
44269 44270 {}
66338 66342 {}
35238 41836 {}
35238 53415 {}
35238 66735 {}
41836 41838 {}
53415 53416 {}
66735 66739 {}
35239 41837 {}
35239 45329 {}
35239 66349 {}
41837 41838 {}
45329 45330 {}
66349 66353 {}
35240 42319 {}
35240 53898 {}
35240 66748 {}
42319 42321 {}
53898 53899 {}
66748 66752 {}
35241 42320 {}
35241 45812 {}
35241 66362 {}
42320 42321 {}
45812 45813 {}
66362 66366 {}
35242 46032 {}
35242 54013 {}
35242 66759 {}
46032 46034 {}
54013 54014 {}
66759 66763 {}
35243 45924 {}
35243 46033 {}
35243 66375 {}
45924 45926 {}
46033 46034 {}
66375 66379 {}
35244 46248 {}
35244 54124 {}
35244 66772 {}
46248 46250 {}
54124 54125 {}
66772 66776 {}
35245 46140 {}
35245 46249 {}
35245 66386 {}
46140 46142 {}
46249 46250 {}
66386 66390 {}
35246 46470 {}
35246 54244 {}
35246 66783 {}
46470 46472 {}
54244 54245 {}
66783 66787 {}
35247 46364 {}
35247 46471 {}
35247 66397 {}
46364 46366 {}
46471 46472 {}
66397 66401 {}
35248 46582 {}
35248 54355 {}
35248 66796 {}
46582 46584 {}
54355 54356 {}
66796 66800 {}
35249 46583 {}
35249 46690 {}
35249 66408 {}
46583 46584 {}
46690 46692 {}
66408 66412 {}
35250 46911 {}
35250 54470 {}
35250 66809 {}
46911 46913 {}
54470 54471 {}
66809 66813 {}
35251 46803 {}
35251 46912 {}
35251 66421 {}
46803 46805 {}
46912 46913 {}
66421 66425 {}
35252 47019 {}
35252 54581 {}
35252 66820 {}
47019 47021 {}
54581 54582 {}
66820 66824 {}
35253 47020 {}
35253 47125 {}
35253 66432 {}
47020 47021 {}
47125 47127 {}
66432 66436 {}
35254 47343 {}
35254 54700 {}
35254 66831 {}
47343 47345 {}
54700 54701 {}
66831 66835 {}
35255 47239 {}
35255 47344 {}
35255 66445 {}
47239 47241 {}
47344 47345 {}
66445 66449 {}
35256 47549 {}
35256 54808 {}
35256 66844 {}
47549 47551 {}
54808 54809 {}
66844 66848 {}
35257 47450 {}
35257 47550 {}
35257 66458 {}
47450 47452 {}
47550 47551 {}
66458 66462 {}
35258 47763 {}
35258 54920 {}
35258 66857 {}
47763 47765 {}
54920 54921 {}
66857 66861 {}
35259 47660 {}
35259 47764 {}
35259 66469 {}
47660 47662 {}
47764 47765 {}
66469 66473 {}
35260 47866 {}
35260 55026 {}
35260 66868 {}
47866 47868 {}
55026 55027 {}
66868 66872 {}
35261 47867 {}
35261 47973 {}
35261 66480 {}
47867 47868 {}
47973 47975 {}
66480 66484 {}
35262 48087 {}
35262 55142 {}
35262 66881 {}
48087 48089 {}
55142 55143 {}
66881 66885 {}
35263 48088 {}
35263 48194 {}
35263 66493 {}
48088 48089 {}
48194 48196 {}
66493 66497 {}
35264 41628 {}
35264 53207 {}
35264 66894 {}
41628 41630 {}
53207 53208 {}
66894 66898 {}
35265 41629 {}
35265 45121 {}
35265 66506 {}
41629 41630 {}
45121 45122 {}
66506 66510 {}
35266 41610 {}
35266 53189 {}
35266 66907 {}
41610 41612 {}
53189 53190 {}
66907 66911 {}
35267 41611 {}
35267 45103 {}
35267 66517 {}
41611 41612 {}
45103 45104 {}
66517 66521 {}
35268 41592 {}
35268 53171 {}
35268 66920 {}
41592 41594 {}
53171 53172 {}
66920 66924 {}
35269 41593 {}
35269 45085 {}
35269 66528 {}
41593 41594 {}
45085 45086 {}
66528 66532 {}
35270 41571 {}
35270 53150 {}
35270 66931 {}
41571 41573 {}
53150 53151 {}
66931 66935 {}
35271 41572 {}
35271 45064 {}
35271 66539 {}
41572 41573 {}
45064 45065 {}
66539 66543 {}
35272 41553 {}
35272 53132 {}
35272 66942 {}
41553 41555 {}
53132 53133 {}
66942 66946 {}
35273 41554 {}
35273 45046 {}
35273 66550 {}
41554 41555 {}
45046 45047 {}
66550 66554 {}
35274 41529 {}
35274 53108 {}
35274 66953 {}
41529 41531 {}
53108 53109 {}
66953 66957 {}
35275 41530 {}
35275 45021 {}
35275 66561 {}
41530 41531 {}
45021 45023 {}
66561 66565 {}
35276 41511 {}
35276 53090 {}
35276 66964 {}
41511 41513 {}
53090 53091 {}
66964 66968 {}
35277 41512 {}
35277 45003 {}
35277 66574 {}
41512 41513 {}
45003 45005 {}
66574 66578 {}
35278 41487 {}
35278 53066 {}
35278 66975 {}
41487 41489 {}
53066 53067 {}
66975 66979 {}
35279 41488 {}
35279 44983 {}
35279 66587 {}
41488 41489 {}
44983 44984 {}
66587 66591 {}
35280 40663 {}
35280 52243 {}
35280 66988 {}
40663 40664 {}
52243 52244 {}
66988 66992 {}
35281 40662 {}
35281 44154 {}
35281 66600 {}
40662 40664 {}
44154 44156 {}
66600 66604 {}
35282 41467 {}
35282 53045 {}
35282 67001 {}
41467 41468 {}
53045 53046 {}
67001 67005 {}
35283 41466 {}
35283 44959 {}
35283 66613 {}
41466 41468 {}
44959 44960 {}
66613 66617 {}
35284 41446 {}
35284 53024 {}
35284 67014 {}
41446 41447 {}
53024 53025 {}
67014 67018 {}
35285 41445 {}
35285 44938 {}
35285 66626 {}
41445 41447 {}
44938 44939 {}
66626 66630 {}
35286 41425 {}
35286 53000 {}
35286 67027 {}
41425 41426 {}
53000 53001 {}
67027 67031 {}
35287 41424 {}
35287 44917 {}
35287 66637 {}
41424 41426 {}
44917 44918 {}
66637 66641 {}
35288 41404 {}
35288 52982 {}
35288 67040 {}
41404 41405 {}
52982 52983 {}
67040 67044 {}
35289 41403 {}
35289 44896 {}
35289 66650 {}
41403 41405 {}
44896 44897 {}
66650 66654 {}
35290 41383 {}
35290 52958 {}
35290 67053 {}
41383 41384 {}
52958 52959 {}
67053 67057 {}
35291 41382 {}
35291 44875 {}
35291 66663 {}
41382 41384 {}
44875 44876 {}
66663 66667 {}
35292 41361 {}
35292 52940 {}
35292 67064 {}
41361 41363 {}
52940 52941 {}
67064 67068 {}
35293 41362 {}
35293 44854 {}
35293 66674 {}
41362 41363 {}
44854 44855 {}
66674 66678 {}
35294 40835 {}
35294 52415 {}
35294 67075 {}
40835 40836 {}
52415 52416 {}
67075 67079 {}
35295 40834 {}
35295 44326 {}
35295 66687 {}
40834 40836 {}
44326 44328 {}
66687 66691 {}
35296 37255 {}
35296 41621 {}
35296 59130 {}
37255 37259 {}
41621 41623 {}
59130 59131 {}
35297 41622 {}
35297 59129 {}
35297 67848 {}
41622 41623 {}
59129 59131 {}
67848 67852 {}
35298 37268 {}
35298 41603 {}
35298 59112 {}
37268 37272 {}
41603 41605 {}
59112 59113 {}
35299 41604 {}
35299 59111 {}
35299 67859 {}
41604 41605 {}
59111 59113 {}
67859 67863 {}
35300 37279 {}
35300 41585 {}
35300 59094 {}
37279 37283 {}
41585 41587 {}
59094 59095 {}
35301 41586 {}
35301 59093 {}
35301 67872 {}
41586 41587 {}
59093 59095 {}
67872 67876 {}
35302 37292 {}
35302 41564 {}
35302 59073 {}
37292 37296 {}
41564 41566 {}
59073 59074 {}
35303 41565 {}
35303 59072 {}
35303 67883 {}
41565 41566 {}
59072 59074 {}
67883 67887 {}
35304 37303 {}
35304 41546 {}
35304 59055 {}
37303 37307 {}
41546 41548 {}
59055 59056 {}
35305 41547 {}
35305 59054 {}
35305 67896 {}
41547 41548 {}
59054 59056 {}
67896 67900 {}
35306 37314 {}
35306 41525 {}
35306 59034 {}
37314 37318 {}
41525 41527 {}
59034 59035 {}
35307 41526 {}
35307 59033 {}
35307 67909 {}
41526 41527 {}
59033 59035 {}
67909 67913 {}
35308 37325 {}
35308 41504 {}
35308 59013 {}
37325 37329 {}
41504 41506 {}
59013 59014 {}
35309 41505 {}
35309 59012 {}
35309 67922 {}
41505 41506 {}
59012 59014 {}
67922 67926 {}
35310 37336 {}
35310 41483 {}
35310 58992 {}
37336 37340 {}
41483 41485 {}
58992 58993 {}
35311 41484 {}
35311 58991 {}
35311 67933 {}
41484 41485 {}
58991 58993 {}
67933 67937 {}
35312 37349 {}
35312 41479 {}
35312 58987 {}
37349 37353 {}
41479 41480 {}
58987 58988 {}
35313 41478 {}
35313 58986 {}
35313 67944 {}
41478 41480 {}
58986 58988 {}
67944 67948 {}
35314 37360 {}
35314 41460 {}
35314 58966 {}
37360 37364 {}
41460 41461 {}
58966 58967 {}
35315 41459 {}
35315 58965 {}
35315 67957 {}
41459 41461 {}
58965 58967 {}
67957 67961 {}
35316 37373 {}
35316 41438 {}
35316 58945 {}
37373 37377 {}
41438 41440 {}
58945 58946 {}
35317 36591 {}
35317 41439 {}
35317 58944 {}
36591 36599 {}
41439 41440 {}
58944 58946 {}
35318 37386 {}
35318 41418 {}
35318 58924 {}
37386 37390 {}
41418 41419 {}
58924 58925 {}
35319 36608 {}
35319 41417 {}
35319 58923 {}
36608 36612 {}
41417 41419 {}
58923 58925 {}
35320 37399 {}
35320 41396 {}
35320 58903 {}
37399 37403 {}
41396 41398 {}
58903 58904 {}
35321 36619 {}
35321 41397 {}
35321 58902 {}
36619 36623 {}
41397 41398 {}
58902 58904 {}
35322 37410 {}
35322 41376 {}
35322 58882 {}
37410 37414 {}
41376 41377 {}
58882 58883 {}
35323 36632 {}
35323 41375 {}
35323 58881 {}
36632 36636 {}
41375 41377 {}
58881 58883 {}
35324 37423 {}
35324 41355 {}
35324 58861 {}
37423 37427 {}
41355 41356 {}
58861 58862 {}
35325 36645 {}
35325 41354 {}
35325 58860 {}
36645 36649 {}
41354 41356 {}
58860 58862 {}
35326 37434 {}
35326 40831 {}
35326 58337 {}
37434 37438 {}
40831 40832 {}
58337 58338 {}
35327 36658 {}
35327 40830 {}
35327 58336 {}
36658 36662 {}
40830 40832 {}
58336 58338 {}
35328 37447 {}
35328 40810 {}
35328 58316 {}
37447 37451 {}
40810 40811 {}
58316 58317 {}
35329 36671 {}
35329 40809 {}
35329 58315 {}
36671 36675 {}
40809 40811 {}
58315 58317 {}
35330 37460 {}
35330 40791 {}
35330 58297 {}
37460 37464 {}
40791 40792 {}
58297 58298 {}
35331 36684 {}
35331 40790 {}
35331 58296 {}
36684 36688 {}
40790 40792 {}
58296 58298 {}
35332 37473 {}
35332 40769 {}
35332 58276 {}
37473 37477 {}
40769 40771 {}
58276 58277 {}
35333 36697 {}
35333 40770 {}
35333 58275 {}
36697 36701 {}
40770 40771 {}
58275 58277 {}
35334 37486 {}
35334 41832 {}
35334 59340 {}
37486 37490 {}
41832 41834 {}
59340 59341 {}
35335 36710 {}
35335 41833 {}
35335 59339 {}
36710 36714 {}
41833 41834 {}
59339 59341 {}
35336 37497 {}
35336 42315 {}
35336 59823 {}
37497 37501 {}
42315 42317 {}
59823 59824 {}
35337 36723 {}
35337 42316 {}
35337 59822 {}
36723 36727 {}
42316 42317 {}
59822 59824 {}
35338 37508 {}
35338 46028 {}
35338 59937 {}
37508 37512 {}
46028 46030 {}
59937 59938 {}
35339 36734 {}
35339 46029 {}
35339 59936 {}
36734 36738 {}
46029 46030 {}
59936 59938 {}
35340 37521 {}
35340 46244 {}
35340 60048 {}
37521 37525 {}
46244 46246 {}
60048 60049 {}
35341 36745 {}
35341 46245 {}
35341 60047 {}
36745 36749 {}
46245 46246 {}
60047 60049 {}
35342 37534 {}
35342 46466 {}
35342 60169 {}
37534 37538 {}
46466 46468 {}
60169 60170 {}
35343 36758 {}
35343 46467 {}
35343 60168 {}
36758 36762 {}
46467 46468 {}
60168 60170 {}
35344 37545 {}
35344 46578 {}
35344 60280 {}
37545 37549 {}
46578 46580 {}
60280 60281 {}
35345 36769 {}
35345 46579 {}
35345 60279 {}
36769 36773 {}
46579 46580 {}
60279 60281 {}
35346 37558 {}
35346 46907 {}
35346 60397 {}
37558 37562 {}
46907 46909 {}
60397 60398 {}
35347 36782 {}
35347 46908 {}
35347 60396 {}
36782 36786 {}
46908 46909 {}
60396 60398 {}
35348 37571 {}
35348 47015 {}
35348 60508 {}
37571 37575 {}
47015 47017 {}
60508 60509 {}
35349 36793 {}
35349 47016 {}
35349 60507 {}
36793 36797 {}
47016 47017 {}
60507 60509 {}
35350 37582 {}
35350 47339 {}
35350 60628 {}
37582 37586 {}
47339 47341 {}
60628 60629 {}
35351 36806 {}
35351 47340 {}
35351 60627 {}
36806 36810 {}
47340 47341 {}
60627 60629 {}
35352 37595 {}
35352 47545 {}
35352 60737 {}
37595 37599 {}
47545 47547 {}
60737 60738 {}
35353 36817 {}
35353 47546 {}
35353 60736 {}
36817 36821 {}
47546 47547 {}
60736 60738 {}
35354 37608 {}
35354 47759 {}
35354 60851 {}
37608 37612 {}
47759 47761 {}
60851 60852 {}
35355 36828 {}
35355 47760 {}
35355 60850 {}
36828 36832 {}
47760 47761 {}
60850 60852 {}
35356 37621 {}
35356 47862 {}
35356 60957 {}
37621 37625 {}
47862 47864 {}
60957 60958 {}
35357 36841 {}
35357 47863 {}
35357 60956 {}
36841 36845 {}
47863 47864 {}
60956 60958 {}
35358 37632 {}
35358 48083 {}
35358 61074 {}
37632 37636 {}
48083 48085 {}
61074 61075 {}
35359 36852 {}
35359 48084 {}
35359 61073 {}
36852 36856 {}
48084 48085 {}
61073 61075 {}
35360 39162 {}
35360 42663 {}
35360 67464 {}
39162 39163 {}
42663 42664 {}
67464 67468 {}
35361 39161 {}
35361 50735 {}
35361 66308 {}
35361 66311 {}
39161 39163 {}
50735 50737 {}
66308 66312 {}
66311 66313 {}
35362 39155 {}
35362 42655 {}
35362 67477 {}
39155 39156 {}
42655 42657 {}
67477 67481 {}
35363 39154 {}
35363 50728 {}
35363 66321 {}
35363 66324 {}
39154 39156 {}
50728 50730 {}
66321 66325 {}
66324 66326 {}
35364 39148 {}
35364 42648 {}
35364 67490 {}
39148 39149 {}
42648 42650 {}
67490 67494 {}
35365 39147 {}
35365 50721 {}
35365 66332 {}
35365 66335 {}
39147 39149 {}
50721 50723 {}
66332 66336 {}
66335 66337 {}
35366 39137 {}
35366 42638 {}
35366 67503 {}
39137 39139 {}
42638 42640 {}
67503 67507 {}
35367 39138 {}
35367 50711 {}
35367 66343 {}
35367 66346 {}
39138 39139 {}
50711 50713 {}
66343 66347 {}
66346 66348 {}
35368 39131 {}
35368 42632 {}
35368 67516 {}
39131 39132 {}
42632 42633 {}
67516 67520 {}
35369 39130 {}
35369 50704 {}
35369 66356 {}
35369 66359 {}
39130 39132 {}
50704 50706 {}
66356 66360 {}
66359 66361 {}
35370 39120 {}
35370 42621 {}
35370 67529 {}
39120 39122 {}
42621 42623 {}
67529 67533 {}
35371 39121 {}
35371 50694 {}
35371 66369 {}
35371 66372 {}
39121 39122 {}
50694 50696 {}
66369 66373 {}
66372 66374 {}
35372 39110 {}
35372 42611 {}
35372 67542 {}
39110 39112 {}
42611 42613 {}
67542 67546 {}
35373 39111 {}
35373 50684 {}
35373 66380 {}
35373 66383 {}
39111 39112 {}
50684 50686 {}
66380 66384 {}
66383 66385 {}
35374 39102 {}
35374 42602 {}
35374 67555 {}
39102 39104 {}
42602 42603 {}
67555 67559 {}
35375 39103 {}
35375 50676 {}
35375 66391 {}
35375 66394 {}
39103 39104 {}
50676 50678 {}
66391 66395 {}
66394 66396 {}
35376 39093 {}
35376 42594 {}
35376 67566 {}
39093 39094 {}
42594 42596 {}
67566 67570 {}
35377 39092 {}
35377 50666 {}
35377 66402 {}
35377 66405 {}
39092 39094 {}
50666 50668 {}
66402 66406 {}
66405 66407 {}
35378 39085 {}
35378 42586 {}
35378 67577 {}
39085 39086 {}
42586 42588 {}
67577 67581 {}
35379 39084 {}
35379 50658 {}
35379 66415 {}
35379 66418 {}
39084 39086 {}
50658 50660 {}
66415 66419 {}
66418 66420 {}
35380 39074 {}
35380 42576 {}
35380 67590 {}
39074 39076 {}
42576 42578 {}
67590 67594 {}
35381 39075 {}
35381 50648 {}
35381 66426 {}
35381 66429 {}
39075 39076 {}
50648 50650 {}
66426 66430 {}
66429 66431 {}
35382 39066 {}
35382 42569 {}
35382 67601 {}
39066 39068 {}
42569 42570 {}
67601 67605 {}
35383 39067 {}
35383 50640 {}
35383 66439 {}
35383 66442 {}
39067 39068 {}
50640 50642 {}
66439 66443 {}
66442 66444 {}
35384 39057 {}
35384 42558 {}
35384 67612 {}
39057 39058 {}
42558 42560 {}
67612 67616 {}
35385 39056 {}
35385 50630 {}
35385 66452 {}
35385 66455 {}
39056 39058 {}
50630 50632 {}
66452 66456 {}
66455 66457 {}
35386 39046 {}
35386 42549 {}
35386 67625 {}
39046 39048 {}
42549 42550 {}
67625 67629 {}
35387 39047 {}
35387 50622 {}
35387 66463 {}
35387 66466 {}
39047 39048 {}
50622 50624 {}
66463 66467 {}
66466 66468 {}
35388 39036 {}
35388 42539 {}
35388 67636 {}
39036 39038 {}
42539 42540 {}
67636 67640 {}
35389 39037 {}
35389 50612 {}
35389 66474 {}
35389 66477 {}
39037 39038 {}
50612 50614 {}
66474 66478 {}
66477 66479 {}
35390 39029 {}
35390 42531 {}
35390 67649 {}
39029 39030 {}
42531 42532 {}
67649 67653 {}
35391 39028 {}
35391 50604 {}
35391 66487 {}
35391 66490 {}
39028 39030 {}
50604 50606 {}
66487 66491 {}
66490 66492 {}
35392 39019 {}
35392 42520 {}
35392 67660 {}
39019 39020 {}
42520 42522 {}
67660 67664 {}
35393 39018 {}
35393 50594 {}
35393 66500 {}
35393 66503 {}
39018 39020 {}
50594 50596 {}
66500 66504 {}
66503 66505 {}
35394 39011 {}
35394 42512 {}
35394 67671 {}
39011 39012 {}
42512 42514 {}
67671 67675 {}
35395 39010 {}
35395 50586 {}
35395 66511 {}
35395 66514 {}
39010 39012 {}
50586 50588 {}
66511 66515 {}
66514 66516 {}
35396 38998 {}
35396 42500 {}
35396 67684 {}
38998 39000 {}
42500 42502 {}
67684 67688 {}
35397 38999 {}
35397 50574 {}
35397 66522 {}
35397 66525 {}
38999 39000 {}
50574 50576 {}
66522 66526 {}
66525 66527 {}
35398 38993 {}
35398 42494 {}
35398 67697 {}
38993 38994 {}
42494 42496 {}
67697 67701 {}
35399 38992 {}
35399 50568 {}
35399 66533 {}
35399 66536 {}
38992 38994 {}
50568 50570 {}
66533 66537 {}
66536 66538 {}
35400 38983 {}
35400 42484 {}
35400 67710 {}
38983 38984 {}
42484 42486 {}
67710 67714 {}
35401 38982 {}
35401 50558 {}
35401 66544 {}
35401 66547 {}
38982 38984 {}
50558 50560 {}
66544 66548 {}
66547 66549 {}
35402 38974 {}
35402 42476 {}
35402 67721 {}
38974 38976 {}
42476 42478 {}
67721 67725 {}
35403 38975 {}
35403 50550 {}
35403 66555 {}
35403 66558 {}
38975 38976 {}
50550 50552 {}
66555 66559 {}
66558 66560 {}
35404 38964 {}
35404 42467 {}
35404 67732 {}
38964 38966 {}
42467 42468 {}
67732 67736 {}
35405 38965 {}
35405 50540 {}
35405 66568 {}
35405 66571 {}
38965 38966 {}
50540 50542 {}
66568 66572 {}
66571 66573 {}
35406 39251 {}
35406 42755 {}
35406 67743 {}
39251 39253 {}
42755 42756 {}
67743 67747 {}
35407 39252 {}
35407 50826 {}
35407 66581 {}
35407 66584 {}
39252 39253 {}
50826 50828 {}
66581 66585 {}
66584 66586 {}
35408 40639 {}
35408 44131 {}
35408 67754 {}
40639 40640 {}
44131 44132 {}
67754 67758 {}
35409 40638 {}
35409 52218 {}
35409 66594 {}
35409 66597 {}
40638 40640 {}
52218 52220 {}
66594 66598 {}
66597 66599 {}
35410 40933 {}
35410 44424 {}
35410 67767 {}
40933 40934 {}
44424 44426 {}
67767 67771 {}
35411 40932 {}
35411 52512 {}
35411 66607 {}
35411 66610 {}
40932 40934 {}
52512 52514 {}
66607 66611 {}
66610 66612 {}
35412 40923 {}
35412 44414 {}
35412 67778 {}
40923 40924 {}
44414 44416 {}
67778 67782 {}
35413 40922 {}
35413 52502 {}
35413 66620 {}
35413 66623 {}
40922 40924 {}
52502 52504 {}
66620 66624 {}
66623 66625 {}
35414 40915 {}
35414 44406 {}
35414 67789 {}
40915 40916 {}
44406 44408 {}
67789 67793 {}
35415 40914 {}
35415 52494 {}
35415 66631 {}
35415 66634 {}
40914 40916 {}
52494 52496 {}
66631 66635 {}
66634 66636 {}
35416 40905 {}
35416 44396 {}
35416 67800 {}
40905 40906 {}
44396 44398 {}
67800 67804 {}
35417 40904 {}
35417 52484 {}
35417 66644 {}
35417 66647 {}
40904 40906 {}
52484 52486 {}
66644 66648 {}
66647 66649 {}
35418 40897 {}
35418 44388 {}
35418 67813 {}
40897 40898 {}
44388 44390 {}
67813 67817 {}
35419 40896 {}
35419 52476 {}
35419 66657 {}
35419 66660 {}
40896 40898 {}
52476 52478 {}
66657 66661 {}
66660 66662 {}
35420 40886 {}
35420 44378 {}
35420 67824 {}
40886 40888 {}
44378 44380 {}
67824 67828 {}
35421 40887 {}
35421 52466 {}
35421 66668 {}
35421 66671 {}
40887 40888 {}
52466 52468 {}
66668 66672 {}
66671 66673 {}
35422 41317 {}
35422 44809 {}
35422 67837 {}
41317 41318 {}
44809 44810 {}
67837 67841 {}
35423 41316 {}
35423 52896 {}
35423 66681 {}
35423 66684 {}
41316 41318 {}
52896 52898 {}
66681 66685 {}
66684 66686 {}
35424 39159 {}
35424 67842 {}
35424 67845 {}
39159 39160 {}
39159 40477 {}
67842 67846 {}
67845 67847 {}
35425 39152 {}
35425 67853 {}
35425 67856 {}
39152 39153 {}
39152 39167 {}
67853 67857 {}
67856 67858 {}
35426 39145 {}
35426 67866 {}
35426 67869 {}
39145 39146 {}
39145 39173 {}
67866 67870 {}
67869 67871 {}
35427 39135 {}
35427 67877 {}
35427 67880 {}
39135 39136 {}
39135 39142 {}
67877 67881 {}
67880 67882 {}
35428 39128 {}
35428 67890 {}
35428 67893 {}
39128 39129 {}
39128 39182 {}
67890 67894 {}
67893 67895 {}
35429 39118 {}
35429 67903 {}
35429 67906 {}
39118 39119 {}
39118 39125 {}
67903 67907 {}
67906 67908 {}
35430 39108 {}
35430 67916 {}
35430 67919 {}
39108 39109 {}
39108 39115 {}
67916 67920 {}
67919 67921 {}
35431 39100 {}
35431 67927 {}
35431 67930 {}
39100 39101 {}
39100 39106 {}
67927 67931 {}
67930 67932 {}
35432 39090 {}
35432 67938 {}
35432 67941 {}
39090 39091 {}
39090 39097 {}
67938 67942 {}
67941 67943 {}
35433 39082 {}
35433 67951 {}
35433 67954 {}
39082 39083 {}
39082 39088 {}
67951 67955 {}
67954 67956 {}
35434 36585 {}
35434 36588 {}
35434 39072 {}
36585 36589 {}
36588 36590 {}
39072 39073 {}
39072 39079 {}
35435 36602 {}
35435 36605 {}
35435 39064 {}
36602 36606 {}
36605 36607 {}
39064 39065 {}
39064 39070 {}
35436 36613 {}
35436 36616 {}
35436 39054 {}
36613 36617 {}
36616 36618 {}
39054 39055 {}
39054 39061 {}
35437 36626 {}
35437 36629 {}
35437 39044 {}
36626 36630 {}
36629 36631 {}
39044 39045 {}
39044 39051 {}
35438 36639 {}
35438 36642 {}
35438 39034 {}
36639 36643 {}
36642 36644 {}
39034 39035 {}
39034 39041 {}
35439 36652 {}
35439 36655 {}
35439 39026 {}
36652 36656 {}
36655 36657 {}
39026 39027 {}
39026 39032 {}
35440 36665 {}
35440 36668 {}
35440 39016 {}
36665 36669 {}
36668 36670 {}
39016 39017 {}
39016 39023 {}
35441 36678 {}
35441 36681 {}
35441 39008 {}
36678 36682 {}
36681 36683 {}
39008 39009 {}
39008 39014 {}
35442 36691 {}
35442 36694 {}
35442 39002 {}
36691 36695 {}
36694 36696 {}
39002 39003 {}
39002 39005 {}
35443 36704 {}
35443 36707 {}
35443 38990 {}
36704 36708 {}
36707 36709 {}
38990 38991 {}
38990 38996 {}
35444 36717 {}
35444 36720 {}
35444 38980 {}
36717 36721 {}
36720 36722 {}
38980 38981 {}
38980 38987 {}
35445 36728 {}
35445 36731 {}
35445 38972 {}
36728 36732 {}
36731 36733 {}
38972 38973 {}
38972 38978 {}
35446 36739 {}
35446 36742 {}
35446 38962 {}
36739 36743 {}
36742 36744 {}
38962 38963 {}
38962 38969 {}
35447 36752 {}
35447 36755 {}
35447 39249 {}
36752 36756 {}
36755 36757 {}
39249 39250 {}
39249 39255 {}
35448 36763 {}
35448 36766 {}
35448 40636 {}
36763 36767 {}
36766 36768 {}
40636 40637 {}
40636 40643 {}
35449 36776 {}
35449 36779 {}
35449 40930 {}
36776 36780 {}
36779 36781 {}
40930 40931 {}
40930 40936 {}
35450 36787 {}
35450 36790 {}
35450 40920 {}
36787 36791 {}
36790 36792 {}
40920 40921 {}
40920 40927 {}
35451 36800 {}
35451 36803 {}
35451 40912 {}
36800 36804 {}
36803 36805 {}
40912 40913 {}
40912 40918 {}
35452 36811 {}
35452 36814 {}
35452 40902 {}
36811 36815 {}
36814 36816 {}
40902 40903 {}
40902 40909 {}
35453 36822 {}
35453 36825 {}
35453 40894 {}
36822 36826 {}
36825 36827 {}
40894 40895 {}
40894 40900 {}
35454 36835 {}
35454 36838 {}
35454 40884 {}
36835 36839 {}
36838 36840 {}
40884 40885 {}
40884 40891 {}
35455 36846 {}
35455 36849 {}
35455 41314 {}
36846 36850 {}
36849 36851 {}
41314 41315 {}
41314 41320 {}
41314 41323 {}
35456 52396 {}
35456 58323 {}
35456 67086 {}
52396 52398 {}
58323 58324 {}
67086 67090 {}
35457 52377 {}
35457 58304 {}
35457 67097 {}
52377 52379 {}
58304 58305 {}
67097 67101 {}
35458 52356 {}
35458 58283 {}
35458 67108 {}
52356 52358 {}
58283 58284 {}
67108 67112 {}
35459 53414 {}
35459 59344 {}
35459 67121 {}
53414 53416 {}
59344 59345 {}
67121 67125 {}
35460 53897 {}
35460 59827 {}
35460 67134 {}
53897 53899 {}
59827 59828 {}
67134 67138 {}
35461 54012 {}
35461 59941 {}
35461 67145 {}
54012 54014 {}
59941 59942 {}
67145 67149 {}
35462 54123 {}
35462 60052 {}
35462 67156 {}
54123 54125 {}
60052 60053 {}
67156 67160 {}
35463 54243 {}
35463 60173 {}
35463 67167 {}
54243 54245 {}
60173 60174 {}
67167 67171 {}
35464 54354 {}
35464 60284 {}
35464 67180 {}
54354 54356 {}
60284 60285 {}
67180 67184 {}
35465 54469 {}
35465 60401 {}
35465 67191 {}
54469 54471 {}
60401 60402 {}
67191 67195 {}
35466 54580 {}
35466 60512 {}
35466 67202 {}
54580 54582 {}
60512 60513 {}
67202 67206 {}
35467 54699 {}
35467 60632 {}
35467 67213 {}
54699 54701 {}
60632 60633 {}
67213 67217 {}
35468 54807 {}
35468 60741 {}
35468 67226 {}
54807 54809 {}
60741 60742 {}
67226 67230 {}
35469 54919 {}
35469 60855 {}
35469 67237 {}
54919 54921 {}
60855 60856 {}
67237 67241 {}
35470 55025 {}
35470 60961 {}
35470 67250 {}
55025 55027 {}
60961 60962 {}
67250 67254 {}
35471 55141 {}
35471 61078 {}
35471 67263 {}
55141 55143 {}
61078 61079 {}
67263 67267 {}
35472 53206 {}
35472 59137 {}
35472 67274 {}
53206 53208 {}
59137 59138 {}
67274 67278 {}
35473 53188 {}
35473 59119 {}
35473 67287 {}
53188 53190 {}
59119 59120 {}
67287 67291 {}
35474 53170 {}
35474 59101 {}
35474 67298 {}
53170 53172 {}
59101 59102 {}
67298 67302 {}
35475 53149 {}
35475 59080 {}
35475 67311 {}
53149 53151 {}
59080 59081 {}
67311 67315 {}
35476 53131 {}
35476 59062 {}
35476 67322 {}
53131 53133 {}
59062 59063 {}
67322 67326 {}
35477 53107 {}
35477 59038 {}
35477 67333 {}
53107 53109 {}
59038 59039 {}
67333 67337 {}
35478 53089 {}
35478 59020 {}
35478 67344 {}
53089 53091 {}
59020 59021 {}
67344 67348 {}
35479 53065 {}
35479 58996 {}
35479 67355 {}
53065 53067 {}
58996 58997 {}
67355 67359 {}
35480 52242 {}
35480 58169 {}
35480 67366 {}
52242 52244 {}
58169 58170 {}
67366 67370 {}
35481 53044 {}
35481 58973 {}
35481 67379 {}
53044 53046 {}
58973 58974 {}
67379 67383 {}
35482 53023 {}
35482 58952 {}
35482 67392 {}
53023 53025 {}
58952 58953 {}
67392 67396 {}
35483 52999 {}
35483 58928 {}
35483 67403 {}
52999 53001 {}
58928 58929 {}
67403 67407 {}
35484 52981 {}
35484 58910 {}
35484 67416 {}
52981 52983 {}
58910 58911 {}
67416 67420 {}
35485 52957 {}
35485 58886 {}
35485 67429 {}
52957 52959 {}
58886 58887 {}
67429 67433 {}
35486 52939 {}
35486 58868 {}
35486 67440 {}
52939 52941 {}
58868 58869 {}
67440 67444 {}
35487 52414 {}
35487 58341 {}
35487 67451 {}
52414 52416 {}
58341 58342 {}
67451 67455 {}
35488 37645 {}
35488 45113 {}
35488 53199 {}
37645 37649 {}
45113 45115 {}
53199 53201 {}
35489 36865 {}
35489 45114 {}
35489 53200 {}
36865 36869 {}
45114 45115 {}
53200 53201 {}
35490 37658 {}
35490 45095 {}
35490 53181 {}
37658 37662 {}
45095 45097 {}
53181 53183 {}
35491 36876 {}
35491 45096 {}
35491 53182 {}
36876 36880 {}
45096 45097 {}
53182 53183 {}
35492 37671 {}
35492 45077 {}
35492 53163 {}
37671 37675 {}
45077 45079 {}
53163 53165 {}
35493 36889 {}
35493 45078 {}
35493 53164 {}
36889 36893 {}
45078 45079 {}
53164 53165 {}
35494 37684 {}
35494 45056 {}
35494 53142 {}
37684 37688 {}
45056 45058 {}
53142 53144 {}
35495 36900 {}
35495 45057 {}
35495 53143 {}
36900 36904 {}
45057 45058 {}
53143 53144 {}
35496 37695 {}
35496 45039 {}
35496 53124 {}
37695 37699 {}
45039 45040 {}
53124 53126 {}
35497 36911 {}
35497 45038 {}
35497 53125 {}
36911 36915 {}
45038 45040 {}
53125 53126 {}
35498 37706 {}
35498 45018 {}
35498 53103 {}
37706 37710 {}
45018 45019 {}
53103 53105 {}
35499 36924 {}
35499 45017 {}
35499 53104 {}
36924 36928 {}
45017 45019 {}
53104 53105 {}
35500 37717 {}
35500 44997 {}
35500 53082 {}
37717 37721 {}
44997 44998 {}
53082 53084 {}
35501 36937 {}
35501 44996 {}
35501 53083 {}
36937 36941 {}
44996 44998 {}
53083 53084 {}
35502 37730 {}
35502 44976 {}
35502 53061 {}
37730 37734 {}
44976 44977 {}
53061 53063 {}
35503 36950 {}
35503 44975 {}
35503 53062 {}
36950 36954 {}
44975 44977 {}
53062 53063 {}
35504 37741 {}
35504 44970 {}
35504 53056 {}
37741 37745 {}
44970 44972 {}
53056 53058 {}
35505 36961 {}
35505 44971 {}
35505 53057 {}
36961 36965 {}
44971 44972 {}
53057 53058 {}
35506 37752 {}
35506 44951 {}
35506 53037 {}
37752 37756 {}
44951 44953 {}
53037 53039 {}
35507 36974 {}
35507 44952 {}
35507 53038 {}
36974 36978 {}
44952 44953 {}
53038 53039 {}
35508 37765 {}
35508 44931 {}
35508 53016 {}
37765 37769 {}
44931 44932 {}
53016 53018 {}
35509 36987 {}
35509 44930 {}
35509 53017 {}
36987 36991 {}
44930 44932 {}
53017 53018 {}
35510 37778 {}
35510 44909 {}
35510 52995 {}
37778 37782 {}
44909 44911 {}
52995 52997 {}
35511 36998 {}
35511 44910 {}
35511 52996 {}
36998 37002 {}
44910 44911 {}
52996 52997 {}
35512 37789 {}
35512 44888 {}
35512 52974 {}
37789 37793 {}
44888 44890 {}
52974 52976 {}
35513 37009 {}
35513 44889 {}
35513 52975 {}
37009 37013 {}
44889 44890 {}
52975 52976 {}
35514 37800 {}
35514 44867 {}
35514 52953 {}
37800 37804 {}
44867 44869 {}
52953 52955 {}
35515 37022 {}
35515 44868 {}
35515 52954 {}
37022 37026 {}
44868 44869 {}
52954 52955 {}
35516 37813 {}
35516 44846 {}
35516 52932 {}
37813 37817 {}
44846 44848 {}
52932 52934 {}
35517 37035 {}
35517 44847 {}
35517 52933 {}
37035 37039 {}
44847 44848 {}
52933 52934 {}
35518 37826 {}
35518 44322 {}
35518 52410 {}
37826 37830 {}
44322 44324 {}
52410 52412 {}
35519 37048 {}
35519 44323 {}
35519 52411 {}
37048 37052 {}
44323 44324 {}
52411 52412 {}
35520 37839 {}
35520 44301 {}
35520 52389 {}
37839 37843 {}
44301 44303 {}
52389 52391 {}
35521 37061 {}
35521 44302 {}
35521 52390 {}
37061 37065 {}
44302 44303 {}
52390 52391 {}
35522 37850 {}
35522 44282 {}
35522 52370 {}
37850 37854 {}
44282 44284 {}
52370 52372 {}
35523 37072 {}
35523 44283 {}
35523 52371 {}
37072 37076 {}
44283 44284 {}
52371 52372 {}
35524 37861 {}
35524 44261 {}
35524 52349 {}
37861 37865 {}
44261 44263 {}
52349 52351 {}
35525 37085 {}
35525 44262 {}
35525 52350 {}
37085 37089 {}
44262 44263 {}
52350 52351 {}
35526 37872 {}
35526 45324 {}
35526 53410 {}
37872 37876 {}
45324 45326 {}
53410 53412 {}
35527 37098 {}
35527 45325 {}
35527 53411 {}
37098 37102 {}
45325 45326 {}
53411 53412 {}
35528 37885 {}
35528 45807 {}
35528 53893 {}
37885 37889 {}
45807 45809 {}
53893 53895 {}
35529 37111 {}
35529 45808 {}
35529 53894 {}
37111 37115 {}
45808 45809 {}
53894 53895 {}
35530 37896 {}
35530 45921 {}
35530 54008 {}
37896 37900 {}
45921 45922 {}
54008 54010 {}
35531 37122 {}
35531 45920 {}
35531 54009 {}
37122 37126 {}
45920 45922 {}
54009 54010 {}
35532 37907 {}
35532 46137 {}
35532 54119 {}
37907 37911 {}
46137 46138 {}
54119 54121 {}
35533 37135 {}
35533 46136 {}
35533 54120 {}
37135 37139 {}
46136 46138 {}
54120 54121 {}
35534 37918 {}
35534 46361 {}
35534 54239 {}
37918 37922 {}
46361 46362 {}
54239 54241 {}
35535 37148 {}
35535 46360 {}
35535 54240 {}
37148 37152 {}
46360 46362 {}
54240 54241 {}
35536 37929 {}
35536 46687 {}
35536 54350 {}
37929 37933 {}
46687 46688 {}
54350 54352 {}
35537 37159 {}
35537 46686 {}
35537 54351 {}
37159 37163 {}
46686 46688 {}
54351 54352 {}
35538 37942 {}
35538 46800 {}
35538 54465 {}
37942 37946 {}
46800 46801 {}
54465 54467 {}
35539 37170 {}
35539 46799 {}
35539 54466 {}
37170 37174 {}
46799 46801 {}
54466 54467 {}
35540 37955 {}
35540 47122 {}
35540 54576 {}
37955 37959 {}
47122 47123 {}
54576 54578 {}
35541 37181 {}
35541 47121 {}
35541 54577 {}
37181 37185 {}
47121 47123 {}
54577 54578 {}
35542 37966 {}
35542 47236 {}
35542 54695 {}
37966 37970 {}
47236 47237 {}
54695 54697 {}
35543 37194 {}
35543 47235 {}
35543 54696 {}
37194 37198 {}
47235 47237 {}
54696 54697 {}
35544 37979 {}
35544 47447 {}
35544 54803 {}
37979 37983 {}
47447 47448 {}
54803 54805 {}
35545 37207 {}
35545 47446 {}
35545 54804 {}
37207 37211 {}
47446 47448 {}
54804 54805 {}
35546 37990 {}
35546 47657 {}
35546 54915 {}
37990 37994 {}
47657 47658 {}
54915 54917 {}
35547 37220 {}
35547 47656 {}
35547 54916 {}
37220 37224 {}
47656 47658 {}
54916 54917 {}
35548 38003 {}
35548 47970 {}
35548 55021 {}
38003 38007 {}
47970 47971 {}
55021 55023 {}
35549 37233 {}
35549 47969 {}
35549 55022 {}
37233 37237 {}
47969 47971 {}
55022 55023 {}
35550 38016 {}
35550 48191 {}
35550 55137 {}
38016 38020 {}
48191 48192 {}
55137 55139 {}
35551 37244 {}
35551 48190 {}
35551 55138 {}
37244 37248 {}
48190 48192 {}
55138 55139 {}
35552 50736 {}
35552 56661 {}
35552 66692 {}
35552 66695 {}
50736 50737 {}
56661 56663 {}
66692 66696 {}
66695 66697 {}
35553 50729 {}
35553 56654 {}
35553 66705 {}
35553 66708 {}
50729 50730 {}
56654 56656 {}
66705 66709 {}
66708 66710 {}
35554 50722 {}
35554 56647 {}
35554 66718 {}
35554 66721 {}
50722 50723 {}
56647 56649 {}
66718 66722 {}
66721 66723 {}
35555 50712 {}
35555 56637 {}
35555 66729 {}
35555 66732 {}
50712 50713 {}
56637 56639 {}
66729 66733 {}
66732 66734 {}
35556 50705 {}
35556 56630 {}
35556 66742 {}
35556 66745 {}
50705 50706 {}
56630 56632 {}
66742 66746 {}
66745 66747 {}
35557 50695 {}
35557 56620 {}
35557 66753 {}
35557 66756 {}
50695 50696 {}
56620 56622 {}
66753 66757 {}
66756 66758 {}
35558 50685 {}
35558 56610 {}
35558 66766 {}
35558 66769 {}
50685 50686 {}
56610 56612 {}
66766 66770 {}
66769 66771 {}
35559 50677 {}
35559 56602 {}
35559 66777 {}
35559 66780 {}
50677 50678 {}
56602 56604 {}
66777 66781 {}
66780 66782 {}
35560 50667 {}
35560 56592 {}
35560 66790 {}
35560 66793 {}
50667 50668 {}
56592 56594 {}
66790 66794 {}
66793 66795 {}
35561 50659 {}
35561 56584 {}
35561 66803 {}
35561 66806 {}
50659 50660 {}
56584 56586 {}
66803 66807 {}
66806 66808 {}
35562 50649 {}
35562 56574 {}
35562 66814 {}
35562 66817 {}
50649 50650 {}
56574 56576 {}
66814 66818 {}
66817 66819 {}
35563 50641 {}
35563 56566 {}
35563 66825 {}
35563 66828 {}
50641 50642 {}
56566 56568 {}
66825 66829 {}
66828 66830 {}
35564 50631 {}
35564 56556 {}
35564 66838 {}
35564 66841 {}
50631 50632 {}
56556 56558 {}
66838 66842 {}
66841 66843 {}
35565 50623 {}
35565 56548 {}
35565 66851 {}
35565 66854 {}
50623 50624 {}
56548 56550 {}
66851 66855 {}
66854 66856 {}
35566 50613 {}
35566 56538 {}
35566 66862 {}
35566 66865 {}
50613 50614 {}
56538 56540 {}
66862 66866 {}
66865 66867 {}
35567 50605 {}
35567 56530 {}
35567 66875 {}
35567 66878 {}
50605 50606 {}
56530 56532 {}
66875 66879 {}
66878 66880 {}
35568 50595 {}
35568 56520 {}
35568 66888 {}
35568 66891 {}
50595 50596 {}
56520 56522 {}
66888 66892 {}
66891 66893 {}
35569 50587 {}
35569 56512 {}
35569 66901 {}
35569 66904 {}
50587 50588 {}
56512 56514 {}
66901 66905 {}
66904 66906 {}
35570 50575 {}
35570 56500 {}
35570 66914 {}
35570 66917 {}
50575 50576 {}
56500 56502 {}
66914 66918 {}
66917 66919 {}
35571 50569 {}
35571 56494 {}
35571 66925 {}
35571 66928 {}
50569 50570 {}
56494 56496 {}
66925 66929 {}
66928 66930 {}
35572 50559 {}
35572 56484 {}
35572 66936 {}
35572 66939 {}
50559 50560 {}
56484 56486 {}
66936 66940 {}
66939 66941 {}
35573 50551 {}
35573 56476 {}
35573 66947 {}
35573 66950 {}
50551 50552 {}
56476 56478 {}
66947 66951 {}
66950 66952 {}
35574 50541 {}
35574 56466 {}
35574 66958 {}
35574 66961 {}
50541 50542 {}
56466 56468 {}
66958 66962 {}
66961 66963 {}
35575 50827 {}
35575 56752 {}
35575 66969 {}
35575 66972 {}
50827 50828 {}
56752 56754 {}
66969 66973 {}
66972 66974 {}
35576 52219 {}
35576 58144 {}
35576 66982 {}
35576 66985 {}
52219 52220 {}
58144 58146 {}
66982 66986 {}
66985 66987 {}
35577 52513 {}
35577 58438 {}
35577 66995 {}
35577 66998 {}
52513 52514 {}
58438 58440 {}
66995 66999 {}
66998 67000 {}
35578 52503 {}
35578 58428 {}
35578 67008 {}
35578 67011 {}
52503 52504 {}
58428 58430 {}
67008 67012 {}
67011 67013 {}
35579 52495 {}
35579 58420 {}
35579 67021 {}
35579 67024 {}
52495 52496 {}
58420 58422 {}
67021 67025 {}
67024 67026 {}
35580 52485 {}
35580 58410 {}
35580 67034 {}
35580 67037 {}
52485 52486 {}
58410 58412 {}
67034 67038 {}
67037 67039 {}
35581 52477 {}
35581 58402 {}
35581 67047 {}
35581 67050 {}
52477 52478 {}
58402 58404 {}
67047 67051 {}
67050 67052 {}
35582 52467 {}
35582 58392 {}
35582 67058 {}
35582 67061 {}
52467 52468 {}
58392 58394 {}
67058 67062 {}
67061 67063 {}
35583 52897 {}
35583 58822 {}
35583 67069 {}
35583 67072 {}
52897 52898 {}
58822 58824 {}
67069 67073 {}
67072 67074 {}
35584 36859 {}
35584 36862 {}
35584 50733 {}
36859 36863 {}
36862 36864 {}
50733 50734 {}
50733 52057 {}
35585 36870 {}
35585 36873 {}
35585 50726 {}
36870 36874 {}
36873 36875 {}
50726 50727 {}
50726 50741 {}
35586 36883 {}
35586 36886 {}
35586 50719 {}
36883 36887 {}
36886 36888 {}
50719 50720 {}
50719 50747 {}
35587 36894 {}
35587 36897 {}
35587 50709 {}
36894 36898 {}
36897 36899 {}
50709 50710 {}
50709 50716 {}
35588 36905 {}
35588 36908 {}
35588 50702 {}
36905 36909 {}
36908 36910 {}
50702 50703 {}
50702 50756 {}
35589 36918 {}
35589 36921 {}
35589 50692 {}
36918 36922 {}
36921 36923 {}
50692 50693 {}
50692 50699 {}
35590 36931 {}
35590 36934 {}
35590 50682 {}
36931 36935 {}
36934 36936 {}
50682 50683 {}
50682 50689 {}
35591 36944 {}
35591 36947 {}
35591 50674 {}
36944 36948 {}
36947 36949 {}
50674 50675 {}
50674 50681 {}
35592 36955 {}
35592 36958 {}
35592 50664 {}
36955 36959 {}
36958 36960 {}
50664 50665 {}
50664 50671 {}
35593 36968 {}
35593 36971 {}
35593 50656 {}
36968 36972 {}
36971 36973 {}
50656 50657 {}
50656 50663 {}
35594 36981 {}
35594 36984 {}
35594 50646 {}
36981 36985 {}
36984 36986 {}
50646 50647 {}
50646 50653 {}
35595 36992 {}
35595 36995 {}
35595 50638 {}
36992 36996 {}
36995 36997 {}
50638 50639 {}
50638 50644 {}
35596 37003 {}
35596 37006 {}
35596 50628 {}
37003 37007 {}
37006 37008 {}
50628 50629 {}
50628 50635 {}
35597 37016 {}
35597 37019 {}
35597 50620 {}
37016 37020 {}
37019 37021 {}
50620 50621 {}
50620 50626 {}
35598 37029 {}
35598 37032 {}
35598 50610 {}
37029 37033 {}
37032 37034 {}
50610 50611 {}
50610 50617 {}
35599 37042 {}
35599 37045 {}
35599 50602 {}
37042 37046 {}
37045 37047 {}
50602 50603 {}
50602 50608 {}
35600 37055 {}
35600 37058 {}
35600 50592 {}
37055 37059 {}
37058 37060 {}
50592 50593 {}
50592 50599 {}
35601 37066 {}
35601 37069 {}
35601 50584 {}
37066 37070 {}
37069 37071 {}
50584 50585 {}
50584 50590 {}
35602 37079 {}
35602 37082 {}
35602 50578 {}
37079 37083 {}
37082 37084 {}
50578 50579 {}
50578 50581 {}
35603 37092 {}
35603 37095 {}
35603 50566 {}
37092 37096 {}
37095 37097 {}
50566 50567 {}
50566 50573 {}
35604 37105 {}
35604 37108 {}
35604 50556 {}
37105 37109 {}
37108 37110 {}
50556 50557 {}
50556 50563 {}
35605 37116 {}
35605 37119 {}
35605 50548 {}
37116 37120 {}
37119 37121 {}
50548 50549 {}
50548 50554 {}
35606 37129 {}
35606 37132 {}
35606 50538 {}
37129 37133 {}
37132 37134 {}
50538 50539 {}
50538 50545 {}
35607 37142 {}
35607 37145 {}
35607 50824 {}
37142 37146 {}
37145 37147 {}
50824 50825 {}
50824 50830 {}
35608 37153 {}
35608 37156 {}
35608 52216 {}
37153 37157 {}
37156 37158 {}
52216 52217 {}
52216 52223 {}
35609 37164 {}
35609 37167 {}
35609 52510 {}
37164 37168 {}
37167 37169 {}
52510 52511 {}
52510 52517 {}
35610 37175 {}
35610 37178 {}
35610 52500 {}
37175 37179 {}
37178 37180 {}
52500 52501 {}
52500 52507 {}
35611 37188 {}
35611 37191 {}
35611 52492 {}
37188 37192 {}
37191 37193 {}
52492 52493 {}
52492 52498 {}
35612 37201 {}
35612 37204 {}
35612 52482 {}
37201 37205 {}
37204 37206 {}
52482 52483 {}
52482 52489 {}
35613 37214 {}
35613 37217 {}
35613 52474 {}
37214 37218 {}
37217 37219 {}
52474 52475 {}
52474 52480 {}
35614 37227 {}
35614 37230 {}
35614 52464 {}
37227 37231 {}
37230 37232 {}
52464 52465 {}
52464 52471 {}
35615 37238 {}
35615 37241 {}
35615 52894 {}
37238 37242 {}
37241 37243 {}
52894 52895 {}
52894 52900 {}
35616 44308 {}
35616 58322 {}
35616 67458 {}
35616 67461 {}
44308 44310 {}
58322 58324 {}
67458 67462 {}
67461 67463 {}
35617 44289 {}
35617 58303 {}
35617 67471 {}
35617 67474 {}
44289 44291 {}
58303 58305 {}
67471 67475 {}
67474 67476 {}
35618 44268 {}
35618 58282 {}
35618 67484 {}
35618 67487 {}
44268 44270 {}
58282 58284 {}
67484 67488 {}
67487 67489 {}
35619 45328 {}
35619 59343 {}
35619 67497 {}
35619 67500 {}
45328 45330 {}
59343 59345 {}
67497 67501 {}
67500 67502 {}
35620 45811 {}
35620 59826 {}
35620 67510 {}
35620 67513 {}
45811 45813 {}
59826 59828 {}
67510 67514 {}
67513 67515 {}
35621 45925 {}
35621 59940 {}
35621 67523 {}
35621 67526 {}
45925 45926 {}
59940 59942 {}
67523 67527 {}
67526 67528 {}
35622 46141 {}
35622 60051 {}
35622 67536 {}
35622 67539 {}
46141 46142 {}
60051 60053 {}
67536 67540 {}
67539 67541 {}
35623 46365 {}
35623 60172 {}
35623 67549 {}
35623 67552 {}
46365 46366 {}
60172 60174 {}
67549 67553 {}
67552 67554 {}
35624 46691 {}
35624 60283 {}
35624 67560 {}
35624 67563 {}
46691 46692 {}
60283 60285 {}
67560 67564 {}
67563 67565 {}
35625 46804 {}
35625 60400 {}
35625 67571 {}
35625 67574 {}
46804 46805 {}
60400 60402 {}
67571 67575 {}
67574 67576 {}
35626 47126 {}
35626 60511 {}
35626 67584 {}
35626 67587 {}
47126 47127 {}
60511 60513 {}
67584 67588 {}
67587 67589 {}
35627 47240 {}
35627 60631 {}
35627 67595 {}
35627 67598 {}
47240 47241 {}
60631 60633 {}
67595 67599 {}
67598 67600 {}
35628 47451 {}
35628 60740 {}
35628 67606 {}
35628 67609 {}
47451 47452 {}
60740 60742 {}
67606 67610 {}
67609 67611 {}
35629 47661 {}
35629 60854 {}
35629 67619 {}
35629 67622 {}
47661 47662 {}
60854 60856 {}
67619 67623 {}
67622 67624 {}
35630 47974 {}
35630 60960 {}
35630 67630 {}
35630 67633 {}
47974 47975 {}
60960 60962 {}
67630 67634 {}
67633 67635 {}
35631 48195 {}
35631 61077 {}
35631 67643 {}
35631 67646 {}
48195 48196 {}
61077 61079 {}
67643 67647 {}
67646 67648 {}
35632 45120 {}
35632 59136 {}
35632 67654 {}
35632 67657 {}
45120 45122 {}
59136 59138 {}
67654 67658 {}
67657 67659 {}
35633 45102 {}
35633 59118 {}
35633 67665 {}
35633 67668 {}
45102 45104 {}
59118 59120 {}
67665 67669 {}
67668 67670 {}
35634 45084 {}
35634 59100 {}
35634 67678 {}
35634 67681 {}
45084 45086 {}
59100 59102 {}
67678 67682 {}
67681 67683 {}
35635 45063 {}
35635 59079 {}
35635 67691 {}
35635 67694 {}
45063 45065 {}
59079 59081 {}
67691 67695 {}
67694 67696 {}
35636 45045 {}
35636 59061 {}
35636 67704 {}
35636 67707 {}
45045 45047 {}
59061 59063 {}
67704 67708 {}
67707 67709 {}
35637 45022 {}
35637 59037 {}
35637 67715 {}
35637 67718 {}
45022 45023 {}
59037 59039 {}
67715 67719 {}
67718 67720 {}
35638 45004 {}
35638 59019 {}
35638 67726 {}
35638 67729 {}
45004 45005 {}
59019 59021 {}
67726 67730 {}
67729 67731 {}
35639 44982 {}
35639 58995 {}
35639 67737 {}
35639 67740 {}
44982 44984 {}
58995 58997 {}
67737 67741 {}
67740 67742 {}
35640 44155 {}
35640 58168 {}
35640 67748 {}
35640 67751 {}
44155 44156 {}
58168 58170 {}
67748 67752 {}
67751 67753 {}
35641 44958 {}
35641 58972 {}
35641 67761 {}
35641 67764 {}
44958 44960 {}
58972 58974 {}
67761 67765 {}
67764 67766 {}
35642 44937 {}
35642 58951 {}
35642 67772 {}
35642 67775 {}
44937 44939 {}
58951 58953 {}
67772 67776 {}
67775 67777 {}
35643 44916 {}
35643 58927 {}
35643 67783 {}
35643 67786 {}
44916 44918 {}
58927 58929 {}
67783 67787 {}
67786 67788 {}
35644 44895 {}
35644 58909 {}
35644 67794 {}
35644 67797 {}
44895 44897 {}
58909 58911 {}
67794 67798 {}
67797 67799 {}
35645 44874 {}
35645 58885 {}
35645 67807 {}
35645 67810 {}
44874 44876 {}
58885 58887 {}
67807 67811 {}
67810 67812 {}
35646 44853 {}
35646 58867 {}
35646 67818 {}
35646 67821 {}
44853 44855 {}
58867 58869 {}
67818 67822 {}
67821 67823 {}
35647 44327 {}
35647 58340 {}
35647 67831 {}
35647 67834 {}
44327 44328 {}
58340 58342 {}
67831 67835 {}
67834 67836 {}
35648 42662 {}
35648 56662 {}
35648 67080 {}
35648 67083 {}
42662 42664 {}
56662 56663 {}
67080 67084 {}
67083 67085 {}
35649 42656 {}
35649 56655 {}
35649 67091 {}
35649 67094 {}
42656 42657 {}
56655 56656 {}
67091 67095 {}
67094 67096 {}
35650 42649 {}
35650 56648 {}
35650 67102 {}
35650 67105 {}
42649 42650 {}
56648 56649 {}
67102 67106 {}
67105 67107 {}
35651 42639 {}
35651 56638 {}
35651 67115 {}
35651 67118 {}
42639 42640 {}
56638 56639 {}
67115 67119 {}
67118 67120 {}
35652 42631 {}
35652 56631 {}
35652 67128 {}
35652 67131 {}
42631 42633 {}
56631 56632 {}
67128 67132 {}
67131 67133 {}
35653 42622 {}
35653 56621 {}
35653 67139 {}
35653 67142 {}
42622 42623 {}
56621 56622 {}
67139 67143 {}
67142 67144 {}
35654 42612 {}
35654 56611 {}
35654 67150 {}
35654 67153 {}
42612 42613 {}
56611 56612 {}
67150 67154 {}
67153 67155 {}
35655 42601 {}
35655 56603 {}
35655 67161 {}
35655 67164 {}
42601 42603 {}
56603 56604 {}
67161 67165 {}
67164 67166 {}
35656 42595 {}
35656 56593 {}
35656 67174 {}
35656 67177 {}
42595 42596 {}
56593 56594 {}
67174 67178 {}
67177 67179 {}
35657 42587 {}
35657 56585 {}
35657 67185 {}
35657 67188 {}
42587 42588 {}
56585 56586 {}
67185 67189 {}
67188 67190 {}
35658 42577 {}
35658 56575 {}
35658 67196 {}
35658 67199 {}
42577 42578 {}
56575 56576 {}
67196 67200 {}
67199 67201 {}
35659 42568 {}
35659 56567 {}
35659 67207 {}
35659 67210 {}
42568 42570 {}
56567 56568 {}
67207 67211 {}
67210 67212 {}
35660 42559 {}
35660 56557 {}
35660 67220 {}
35660 67223 {}
42559 42560 {}
56557 56558 {}
67220 67224 {}
67223 67225 {}
35661 42548 {}
35661 56549 {}
35661 67231 {}
35661 67234 {}
42548 42550 {}
56549 56550 {}
67231 67235 {}
67234 67236 {}
35662 42538 {}
35662 56539 {}
35662 67244 {}
35662 67247 {}
42538 42540 {}
56539 56540 {}
67244 67248 {}
67247 67249 {}
35663 42530 {}
35663 56531 {}
35663 67257 {}
35663 67260 {}
42530 42532 {}
56531 56532 {}
67257 67261 {}
67260 67262 {}
35664 42521 {}
35664 56521 {}
35664 67268 {}
35664 67271 {}
42521 42522 {}
56521 56522 {}
67268 67272 {}
67271 67273 {}
35665 42513 {}
35665 56513 {}
35665 67281 {}
35665 67284 {}
42513 42514 {}
56513 56514 {}
67281 67285 {}
67284 67286 {}
35666 42501 {}
35666 56501 {}
35666 67292 {}
35666 67295 {}
42501 42502 {}
56501 56502 {}
67292 67296 {}
67295 67297 {}
35667 42495 {}
35667 56495 {}
35667 67305 {}
35667 67308 {}
42495 42496 {}
56495 56496 {}
67305 67309 {}
67308 67310 {}
35668 42485 {}
35668 56485 {}
35668 67316 {}
35668 67319 {}
42485 42486 {}
56485 56486 {}
67316 67320 {}
67319 67321 {}
35669 42477 {}
35669 56477 {}
35669 67327 {}
35669 67330 {}
42477 42478 {}
56477 56478 {}
67327 67331 {}
67330 67332 {}
35670 42466 {}
35670 56467 {}
35670 67338 {}
35670 67341 {}
42466 42468 {}
56467 56468 {}
67338 67342 {}
67341 67343 {}
35671 42754 {}
35671 56753 {}
35671 67349 {}
35671 67352 {}
42754 42756 {}
56753 56754 {}
67349 67353 {}
67352 67354 {}
35672 44130 {}
35672 58145 {}
35672 67360 {}
35672 67363 {}
44130 44132 {}
58145 58146 {}
67360 67364 {}
67363 67365 {}
35673 44425 {}
35673 58439 {}
35673 67373 {}
35673 67376 {}
44425 44426 {}
58439 58440 {}
67373 67377 {}
67376 67378 {}
35674 44415 {}
35674 58429 {}
35674 67386 {}
35674 67389 {}
44415 44416 {}
58429 58430 {}
67386 67390 {}
67389 67391 {}
35675 44407 {}
35675 58421 {}
35675 67397 {}
35675 67400 {}
44407 44408 {}
58421 58422 {}
67397 67401 {}
67400 67402 {}
35676 44397 {}
35676 58411 {}
35676 67410 {}
35676 67413 {}
44397 44398 {}
58411 58412 {}
67410 67414 {}
67413 67415 {}
35677 44389 {}
35677 58403 {}
35677 67423 {}
35677 67426 {}
44389 44390 {}
58403 58404 {}
67423 67427 {}
67426 67428 {}
35678 44379 {}
35678 58393 {}
35678 67434 {}
35678 67437 {}
44379 44380 {}
58393 58394 {}
67434 67438 {}
67437 67439 {}
35679 44808 {}
35679 58823 {}
35679 67445 {}
35679 67448 {}
44808 44810 {}
58823 58824 {}
67445 67449 {}
67448 67450 {}
35680 37249 {}
35680 37252 {}
35680 56659 {}
37249 37253 {}
37252 37254 {}
56659 56660 {}
56659 57983 {}
35681 37262 {}
35681 37265 {}
35681 56652 {}
37262 37266 {}
37265 37267 {}
56652 56653 {}
56652 56667 {}
35682 37273 {}
35682 37276 {}
35682 56645 {}
37273 37277 {}
37276 37278 {}
56645 56646 {}
56645 56673 {}
35683 37286 {}
35683 37289 {}
35683 56635 {}
37286 37290 {}
37289 37291 {}
56635 56636 {}
56635 56642 {}
35684 37297 {}
35684 37300 {}
35684 56628 {}
37297 37301 {}
37300 37302 {}
56628 56629 {}
56628 56682 {}
35685 37308 {}
35685 37311 {}
35685 56618 {}
37308 37312 {}
37311 37313 {}
56618 56619 {}
56618 56625 {}
35686 37319 {}
35686 37322 {}
35686 56608 {}
37319 37323 {}
37322 37324 {}
56608 56609 {}
56608 56615 {}
35687 37330 {}
35687 37333 {}
35687 56600 {}
37330 37334 {}
37333 37335 {}
56600 56601 {}
56600 56606 {}
35688 37343 {}
35688 37346 {}
35688 56590 {}
37343 37347 {}
37346 37348 {}
56590 56591 {}
56590 56597 {}
35689 37354 {}
35689 37357 {}
35689 56582 {}
37354 37358 {}
37357 37359 {}
56582 56583 {}
56582 56588 {}
35690 37367 {}
35690 37370 {}
35690 56572 {}
37367 37371 {}
37370 37372 {}
56572 56573 {}
56572 56579 {}
35691 37380 {}
35691 37383 {}
35691 56564 {}
37380 37384 {}
37383 37385 {}
56564 56565 {}
56564 56570 {}
35692 37393 {}
35692 37396 {}
35692 56554 {}
37393 37397 {}
37396 37398 {}
56554 56555 {}
56554 56561 {}
35693 37404 {}
35693 37407 {}
35693 56546 {}
37404 37408 {}
37407 37409 {}
56546 56547 {}
56546 56552 {}
35694 37417 {}
35694 37420 {}
35694 56536 {}
37417 37421 {}
37420 37422 {}
56536 56537 {}
56536 56543 {}
35695 37428 {}
35695 37431 {}
35695 56528 {}
37428 37432 {}
37431 37433 {}
56528 56529 {}
56528 56534 {}
35696 37441 {}
35696 37444 {}
35696 56518 {}
37441 37445 {}
37444 37446 {}
56518 56519 {}
56518 56525 {}
35697 37454 {}
35697 37457 {}
35697 56510 {}
37454 37458 {}
37457 37459 {}
56510 56511 {}
56510 56516 {}
35698 37467 {}
35698 37470 {}
35698 56504 {}
37467 37471 {}
37470 37472 {}
56504 56505 {}
56504 56507 {}
35699 37480 {}
35699 37483 {}
35699 56492 {}
37480 37484 {}
37483 37485 {}
56492 56493 {}
56492 56498 {}
35700 37491 {}
35700 37494 {}
35700 56482 {}
37491 37495 {}
37494 37496 {}
56482 56483 {}
56482 56489 {}
35701 37502 {}
35701 37505 {}
35701 56474 {}
37502 37506 {}
37505 37507 {}
56474 56475 {}
56474 56480 {}
35702 37515 {}
35702 37518 {}
35702 56464 {}
37515 37519 {}
37518 37520 {}
56464 56465 {}
56464 56471 {}
35703 37528 {}
35703 37531 {}
35703 56750 {}
37528 37532 {}
37531 37533 {}
56750 56751 {}
56750 56756 {}
35704 37539 {}
35704 37542 {}
35704 58142 {}
37539 37543 {}
37542 37544 {}
58142 58143 {}
58142 58149 {}
35705 37552 {}
35705 37555 {}
35705 58436 {}
37552 37556 {}
37555 37557 {}
58436 58437 {}
58436 58442 {}
35706 37565 {}
35706 37568 {}
35706 58426 {}
37565 37569 {}
37568 37570 {}
58426 58427 {}
58426 58433 {}
35707 37576 {}
35707 37579 {}
35707 58418 {}
37576 37580 {}
37579 37581 {}
58418 58419 {}
58418 58424 {}
35708 37589 {}
35708 37592 {}
35708 58408 {}
37589 37593 {}
37592 37594 {}
58408 58409 {}
58408 58415 {}
35709 37602 {}
35709 37605 {}
35709 58400 {}
37602 37606 {}
37605 37607 {}
58400 58401 {}
58400 58406 {}
35710 37615 {}
35710 37618 {}
35710 58390 {}
37615 37619 {}
37618 37620 {}
58390 58391 {}
58390 58397 {}
35711 37626 {}
35711 37629 {}
35711 58820 {}
37626 37630 {}
37629 37631 {}
58820 58821 {}
58820 58826 {}
58820 58829 {}
35712 37639 {}
35712 37642 {}
35712 42660 {}
37639 37643 {}
37642 37644 {}
42660 42661 {}
42660 43969 {}
35713 37652 {}
35713 37655 {}
35713 42653 {}
37652 37656 {}
37655 37657 {}
42653 42654 {}
42653 42668 {}
35714 37665 {}
35714 37668 {}
35714 42646 {}
37665 37669 {}
37668 37670 {}
42646 42647 {}
42646 42674 {}
35715 37678 {}
35715 37681 {}
35715 42636 {}
37678 37682 {}
37681 37683 {}
42636 42637 {}
42636 42643 {}
35716 37689 {}
35716 37692 {}
35716 42629 {}
37689 37693 {}
37692 37694 {}
42629 42630 {}
42629 42683 {}
35717 37700 {}
35717 37703 {}
35717 42619 {}
37700 37704 {}
37703 37705 {}
42619 42620 {}
42619 42626 {}
35718 37711 {}
35718 37714 {}
35718 42609 {}
37711 37715 {}
37714 37716 {}
42609 42610 {}
42609 42616 {}
35719 37724 {}
35719 37727 {}
35719 42599 {}
37724 37728 {}
37727 37729 {}
42599 42600 {}
42599 42606 {}
35720 37735 {}
35720 37738 {}
35720 42592 {}
37735 37739 {}
37738 37740 {}
42592 42593 {}
42592 42698 {}
35721 37746 {}
35721 37749 {}
35721 42584 {}
37746 37750 {}
37749 37751 {}
42584 42585 {}
42584 42590 {}
35722 37759 {}
35722 37762 {}
35722 42574 {}
37759 37763 {}
37762 37764 {}
42574 42575 {}
42574 42581 {}
35723 37772 {}
35723 37775 {}
35723 42566 {}
37772 37776 {}
37775 37777 {}
42566 42567 {}
42566 42572 {}
35724 37783 {}
35724 37786 {}
35724 42556 {}
37783 37787 {}
37786 37788 {}
42556 42557 {}
42556 42563 {}
35725 37794 {}
35725 37797 {}
35725 42546 {}
37794 37798 {}
37797 37799 {}
42546 42547 {}
42546 42553 {}
35726 37807 {}
35726 37810 {}
35726 42536 {}
37807 37811 {}
37810 37812 {}
42536 42537 {}
42536 42543 {}
35727 37820 {}
35727 37823 {}
35727 42528 {}
37820 37824 {}
37823 37825 {}
42528 42529 {}
42528 42534 {}
35728 37833 {}
35728 37836 {}
35728 42518 {}
37833 37837 {}
37836 37838 {}
42518 42519 {}
42518 42525 {}
35729 37844 {}
35729 37847 {}
35729 42510 {}
37844 37848 {}
37847 37849 {}
42510 42511 {}
42510 42516 {}
35730 37855 {}
35730 37858 {}
35730 42504 {}
37855 37859 {}
37858 37860 {}
42504 42505 {}
42504 42507 {}
35731 37866 {}
35731 37869 {}
35731 42492 {}
37866 37870 {}
37869 37871 {}
42492 42493 {}
42492 42498 {}
35732 37879 {}
35732 37882 {}
35732 42482 {}
37879 37883 {}
37882 37884 {}
42482 42483 {}
42482 42489 {}
35733 37890 {}
35733 37893 {}
35733 42474 {}
37890 37894 {}
37893 37895 {}
42474 42475 {}
42474 42480 {}
35734 37901 {}
35734 37904 {}
35734 42464 {}
37901 37905 {}
37904 37906 {}
42464 42465 {}
42464 42471 {}
35735 37912 {}
35735 37915 {}
35735 42752 {}
37912 37916 {}
37915 37917 {}
42752 42753 {}
42752 42758 {}
35736 37923 {}
35736 37926 {}
35736 44128 {}
37923 37927 {}
37926 37928 {}
44128 44129 {}
44128 44135 {}
35737 37936 {}
35737 37939 {}
35737 44422 {}
37936 37940 {}
37939 37941 {}
44422 44423 {}
44422 44428 {}
35738 37949 {}
35738 37952 {}
35738 44412 {}
37949 37953 {}
37952 37954 {}
44412 44413 {}
44412 44419 {}
35739 37960 {}
35739 37963 {}
35739 44404 {}
37960 37964 {}
37963 37965 {}
44404 44405 {}
44404 44410 {}
35740 37973 {}
35740 37976 {}
35740 44394 {}
37973 37977 {}
37976 37978 {}
44394 44395 {}
44394 44401 {}
35741 37984 {}
35741 37987 {}
35741 44386 {}
37984 37988 {}
37987 37989 {}
44386 44387 {}
44386 44392 {}
35742 37997 {}
35742 38000 {}
35742 44376 {}
37997 38001 {}
38000 38002 {}
44376 44377 {}
44376 44383 {}
35743 38010 {}
35743 38013 {}
35743 44806 {}
38010 38014 {}
38013 38015 {}
44806 44807 {}
44806 44812 {}
44806 44815 {}
35744 54178 {}
54178 54179 {}
54178 54405 {}
54178 54635 {}
54178 54968 {}
54178 55080 {}
54178 55366 {}
54178 55809 {}
54178 55898 {}
54178 55987 {}
54178 56079 {}
54178 56168 {}
54178 56339 {}
54178 56352 {}
54178 56365 {}
35745 38672 {}
35745 59875 {}
38672 38673 {}
38672 38674 {}
38672 38679 {}
59875 59876 {}
35746 38672 {}
35746 59991 {}
59991 59994 {}
35747 38689 {}
35747 60335 {}
38689 38690 {}
38689 38692 {}
38689 38697 {}
60335 60336 {}
35748 38695 {}
35748 60451 {}
38695 38696 {}
38695 38698 {}
38695 38701 {}
60451 60454 {}
35749 38702 {}
35749 60567 {}
38702 38703 {}
38702 38704 {}
38702 38709 {}
60567 60568 {}
35750 38714 {}
35750 60791 {}
38714 38715 {}
38714 38716 {}
38714 38719 {}
60791 60793 {}
35751 38720 {}
35751 60903 {}
38720 38721 {}
38720 38722 {}
38720 38725 {}
60903 60906 {}
35752 38726 {}
35752 61015 {}
38726 38727 {}
38726 38728 {}
38726 38731 {}
61015 61017 {}
35753 38738 {}
35753 61216 {}
38738 38739 {}
38738 38740 {}
38738 38743 {}
61216 61218 {}
35754 38755 {}
35754 61401 {}
38755 38756 {}
38755 38758 {}
38755 38761 {}
61401 61486 {}
35755 38768 {}
35755 61581 {}
38768 38769 {}
38768 38770 {}
38768 38775 {}
61581 61664 {}
35756 38780 {}
35756 61842 {}
38780 38781 {}
38780 38782 {}
38780 38787 {}
61842 61844 {}
35757 38785 {}
35757 61849 {}
38785 38786 {}
38785 38788 {}
38785 38791 {}
61849 61934 {}
35758 38792 {}
35758 62020 {}
38792 38793 {}
38792 38794 {}
38792 38799 {}
62020 62022 {}
35759 38797 {}
35759 62110 {}
38797 38798 {}
38797 38800 {}
38797 38805 {}
62110 62112 {}
35760 38803 {}
35760 62202 {}
38803 38804 {}
38803 38806 {}
38803 38811 {}
62202 62204 {}
35761 38821 {}
35761 62237 {}
38821 38822 {}
38821 38824 {}
38821 38827 {}
62237 62246 {}
35762 38840 {}
35762 62287 {}
38840 38841 {}
38840 38842 {}
38840 38845 {}
62287 62290 {}
35763 38846 {}
35763 62293 {}
38846 38847 {}
38846 38848 {}
38846 38851 {}
62293 62304 {}
35764 38095 {}
35764 38341 {}
35764 38354 {}
35764 62370 {}
38095 38096 {}
38341 38342 {}
38341 38343 {}
38341 38512 {}
38354 38436 {}
62370 62372 {}
35765 38095 {}
35765 38345 {}
35765 38856 {}
35765 62378 {}
38345 38495 {}
38856 38857 {}
62378 62381 {}
35766 38101 {}
35766 38328 {}
35766 38334 {}
35766 62391 {}
38101 38102 {}
38328 38329 {}
38328 38333 {}
38328 38441 {}
38334 38489 {}
62391 62393 {}
35767 38101 {}
35767 38440 {}
35767 38445 {}
35767 62399 {}
38440 38444 {}
38445 38491 {}
62399 62402 {}
35768 38107 {}
35768 38464 {}
35768 38466 {}
35768 38469 {}
35768 62413 {}
38107 38108 {}
38107 38465 {}
38107 38468 {}
38464 38495 {}
38466 38477 {}
38469 38479 {}
62413 62416 {}
35769 38109 {}
35769 38473 {}
35769 38476 {}
35769 62426 {}
38109 38110 {}
38473 38474 {}
38476 38485 {}
62426 62428 {}
35770 38115 {}
35770 38200 {}
35770 38563 {}
35770 62434 {}
38115 38116 {}
38115 38547 {}
38200 38201 {}
38200 38549 {}
38563 38564 {}
62434 62437 {}
35771 38123 {}
35771 38208 {}
35771 38319 {}
35771 62461 {}
38123 38124 {}
38123 38299 {}
38208 38209 {}
38208 38301 {}
38319 38320 {}
62461 62463 {}
35772 38125 {}
35772 38210 {}
35772 38305 {}
35772 38311 {}
35772 62469 {}
38125 38126 {}
38125 38291 {}
38210 38211 {}
38210 38293 {}
38305 38306 {}
38311 38320 {}
62469 62472 {}
35773 38127 {}
35773 38212 {}
35773 38298 {}
35773 62475 {}
38127 38128 {}
38127 38281 {}
38212 38213 {}
38212 38283 {}
38298 38574 {}
62475 62477 {}
35774 38129 {}
35774 38214 {}
35774 38290 {}
35774 62483 {}
38129 38130 {}
38129 38273 {}
38214 38215 {}
38214 38275 {}
38290 38576 {}
62483 62484 {}
35775 38133 {}
35775 38218 {}
35775 38272 {}
35775 62496 {}
38133 38134 {}
38133 38584 {}
38218 38219 {}
38218 38588 {}
38272 38580 {}
62496 62498 {}
35776 38135 {}
35776 38220 {}
35776 38593 {}
35776 62503 {}
38135 38136 {}
38135 38582 {}
38220 38221 {}
38220 38586 {}
38593 38600 {}
62503 62505 {}
35777 38137 {}
35777 38222 {}
35777 38596 {}
35777 38599 {}
35777 62511 {}
38137 38138 {}
38137 38255 {}
38222 38223 {}
38222 38257 {}
38596 38597 {}
38599 38600 {}
62511 62512 {}
35778 38141 {}
35778 38226 {}
35778 38254 {}
35778 62525 {}
38141 38142 {}
38141 38146 {}
38226 38227 {}
38226 38231 {}
38254 38606 {}
62525 62526 {}
35779 38239 {}
35779 38242 {}
35779 62538 {}
38239 38240 {}
38242 38243 {}
62538 62540 {}
35780 64503 {}
35780 66309 {}
35780 66311 {}
64503 64508 {}
66309 66312 {}
35781 64516 {}
35781 66322 {}
35781 66324 {}
64516 64521 {}
66322 66325 {}
35782 64529 {}
35782 66333 {}
35782 66335 {}
64529 64534 {}
66333 66336 {}
35783 64543 {}
35783 66344 {}
35783 66346 {}
64543 64548 {}
66344 66347 {}
35784 64556 {}
35784 66357 {}
35784 66359 {}
64556 64561 {}
66357 66360 {}
35785 64569 {}
35785 66370 {}
35785 66372 {}
64569 64574 {}
66370 66373 {}
35786 64582 {}
35786 66381 {}
35786 66383 {}
64582 64587 {}
66381 66384 {}
35787 64595 {}
35787 66392 {}
35787 66394 {}
64595 64600 {}
66392 66395 {}
35788 64608 {}
35788 66403 {}
35788 66405 {}
64608 64614 {}
66403 66406 {}
35789 64622 {}
35789 66416 {}
35789 66418 {}
64622 64627 {}
66416 66419 {}
35790 64635 {}
35790 66427 {}
35790 66429 {}
64635 64640 {}
66427 66430 {}
35791 64648 {}
35791 66440 {}
35791 66442 {}
64648 64653 {}
66440 66443 {}
35792 64661 {}
35792 66453 {}
35792 66455 {}
64661 64666 {}
66453 66456 {}
35793 64674 {}
35793 66464 {}
35793 66466 {}
64674 64679 {}
66464 66467 {}
35794 64687 {}
35794 66475 {}
35794 66477 {}
64687 64692 {}
66475 66478 {}
35795 64700 {}
35795 66488 {}
35795 66490 {}
64700 64705 {}
66488 66491 {}
35796 64713 {}
35796 66501 {}
35796 66503 {}
64713 64718 {}
66501 66504 {}
35797 64726 {}
35797 66512 {}
35797 66514 {}
64726 64731 {}
66512 66515 {}
35798 64739 {}
35798 66523 {}
35798 66525 {}
64739 64744 {}
66523 66526 {}
35799 64752 {}
35799 66534 {}
35799 66536 {}
64752 64757 {}
66534 66537 {}
35800 64766 {}
35800 66545 {}
35800 66547 {}
64766 64771 {}
66545 66548 {}
35801 64779 {}
35801 66556 {}
35801 66558 {}
64779 64784 {}
66556 66559 {}
35802 64792 {}
35802 66569 {}
35802 66571 {}
64792 64797 {}
66569 66572 {}
35803 64806 {}
35803 66582 {}
35803 66584 {}
64806 64812 {}
66582 66585 {}
35804 64820 {}
35804 66595 {}
35804 66597 {}
64820 64825 {}
66595 66598 {}
35805 64833 {}
35805 66608 {}
35805 66610 {}
64833 64838 {}
66608 66611 {}
35806 64847 {}
35806 66621 {}
35806 66623 {}
64847 64853 {}
66621 66624 {}
35807 64861 {}
35807 66632 {}
35807 66634 {}
64861 64866 {}
66632 66635 {}
35808 64874 {}
35808 66645 {}
35808 66647 {}
64874 64879 {}
66645 66648 {}
35809 64887 {}
35809 66658 {}
35809 66660 {}
64887 64892 {}
66658 66661 {}
35810 64900 {}
35810 66669 {}
35810 66671 {}
64900 64906 {}
66669 66672 {}
35811 64914 {}
35811 66682 {}
35811 66684 {}
64914 64919 {}
66682 66685 {}
35812 64927 {}
35812 66693 {}
35812 66695 {}
64927 64929 {}
66693 66696 {}
35813 64937 {}
35813 66706 {}
35813 66708 {}
64937 64939 {}
66706 66709 {}
35814 64944 {}
35814 66719 {}
35814 66721 {}
64944 64949 {}
66719 66722 {}
35815 64954 {}
35815 66730 {}
35815 66732 {}
64954 64959 {}
66730 66733 {}
35816 64967 {}
35816 66743 {}
35816 66745 {}
64967 64969 {}
66743 66746 {}
35817 64974 {}
35817 66754 {}
35817 66756 {}
64974 64979 {}
66754 66757 {}
35818 64984 {}
35818 66767 {}
35818 66769 {}
64984 64989 {}
66767 66770 {}
35819 64994 {}
35819 66778 {}
35819 66780 {}
64994 64999 {}
66778 66781 {}
35820 65008 {}
35820 66791 {}
35820 66793 {}
65008 65010 {}
66791 66794 {}
35821 65015 {}
35821 66804 {}
35821 66806 {}
65015 65020 {}
66804 66807 {}
35822 65025 {}
35822 66815 {}
35822 66817 {}
65025 65030 {}
66815 66818 {}
35823 65038 {}
35823 66826 {}
35823 66828 {}
65038 65040 {}
66826 66829 {}
35824 65045 {}
35824 66839 {}
35824 66841 {}
65045 65050 {}
66839 66842 {}
35825 65055 {}
35825 66852 {}
35825 66854 {}
65055 65060 {}
66852 66855 {}
35826 65069 {}
35826 66863 {}
35826 66865 {}
65069 65071 {}
66863 66866 {}
35827 65076 {}
35827 66876 {}
35827 66878 {}
65076 65081 {}
66876 66879 {}
35828 65089 {}
35828 66889 {}
35828 66891 {}
65089 65091 {}
66889 66892 {}
35829 65096 {}
35829 66902 {}
35829 66904 {}
65096 65101 {}
66902 66905 {}
35830 65106 {}
35830 66915 {}
35830 66917 {}
65106 65111 {}
66915 66918 {}
35831 65116 {}
35831 66926 {}
35831 66928 {}
65116 65121 {}
66926 66929 {}
35832 65126 {}
35832 66937 {}
35832 66939 {}
65126 65131 {}
66937 66940 {}
35833 65136 {}
35833 66948 {}
35833 66950 {}
65136 65141 {}
66948 66951 {}
35834 65146 {}
35834 66959 {}
35834 66961 {}
65146 65151 {}
66959 66962 {}
35835 65156 {}
35835 66970 {}
35835 66972 {}
65156 65162 {}
66970 66973 {}
35836 65167 {}
35836 66983 {}
35836 66985 {}
65167 65172 {}
66983 66986 {}
35837 65177 {}
35837 66996 {}
35837 66998 {}
65177 65182 {}
66996 66999 {}
35838 65187 {}
35838 67009 {}
35838 67011 {}
65187 65193 {}
67009 67012 {}
35839 65198 {}
35839 67022 {}
35839 67024 {}
65198 65203 {}
67022 67025 {}
35840 65211 {}
35840 67035 {}
35840 67037 {}
65211 65213 {}
67035 67038 {}
35841 65218 {}
35841 67048 {}
35841 67050 {}
65218 65223 {}
67048 67051 {}
35842 65228 {}
35842 67059 {}
35842 67061 {}
65228 65234 {}
67059 67062 {}
35843 65242 {}
35843 67070 {}
35843 67072 {}
65242 65244 {}
67070 67073 {}
35844 65249 {}
35844 67081 {}
35844 67083 {}
65249 65254 {}
67081 67084 {}
35845 65259 {}
35845 67092 {}
35845 67094 {}
65259 65264 {}
67092 67095 {}
35846 65269 {}
35846 67103 {}
35846 67105 {}
65269 65274 {}
67103 67106 {}
35847 65279 {}
35847 67116 {}
35847 67118 {}
65279 65284 {}
67116 67119 {}
35848 65289 {}
35848 67129 {}
35848 67131 {}
65289 65294 {}
67129 67132 {}
35849 65299 {}
35849 67140 {}
35849 67142 {}
65299 65304 {}
67140 67143 {}
35850 65309 {}
35850 67151 {}
35850 67153 {}
65309 65314 {}
67151 67154 {}
35851 65319 {}
35851 67162 {}
35851 67164 {}
65319 65324 {}
67162 67165 {}
35852 65329 {}
35852 67175 {}
35852 67177 {}
65329 65334 {}
67175 67178 {}
35853 65339 {}
35853 67186 {}
35853 67188 {}
65339 65344 {}
67186 67189 {}
35854 65352 {}
35854 67197 {}
35854 67199 {}
65352 65354 {}
67197 67200 {}
35855 65359 {}
35855 67208 {}
35855 67210 {}
65359 65364 {}
67208 67211 {}
35856 65369 {}
35856 67221 {}
35856 67223 {}
65369 65374 {}
67221 67224 {}
35857 65379 {}
35857 67232 {}
35857 67234 {}
65379 65384 {}
67232 67235 {}
35858 65389 {}
35858 67245 {}
35858 67247 {}
65389 65394 {}
67245 67248 {}
35859 65399 {}
35859 67258 {}
35859 67260 {}
65399 65404 {}
67258 67261 {}
35860 65409 {}
35860 67269 {}
35860 67271 {}
65409 65414 {}
67269 67272 {}
35861 65422 {}
35861 67282 {}
35861 67284 {}
65422 65424 {}
67282 67285 {}
35862 65429 {}
35862 67293 {}
35862 67295 {}
65429 65434 {}
67293 67296 {}
35863 65439 {}
35863 67306 {}
35863 67308 {}
65439 65444 {}
67306 67309 {}
35864 65449 {}
35864 67317 {}
35864 67319 {}
65449 65454 {}
67317 67320 {}
35865 65462 {}
35865 67328 {}
35865 67330 {}
65462 65464 {}
67328 67331 {}
35866 65472 {}
35866 67339 {}
35866 67341 {}
65472 65474 {}
67339 67342 {}
35867 65479 {}
35867 67350 {}
35867 67352 {}
65479 65485 {}
67350 67353 {}
35868 65490 {}
35868 67361 {}
35868 67363 {}
65490 65496 {}
67361 67364 {}
35869 65504 {}
35869 67374 {}
35869 67376 {}
65504 65506 {}
67374 67377 {}
35870 65511 {}
35870 67387 {}
35870 67389 {}
65511 65517 {}
67387 67390 {}
35871 65525 {}
35871 67398 {}
35871 67400 {}
65525 65527 {}
67398 67401 {}
35872 65535 {}
35872 67411 {}
35872 67413 {}
65535 65537 {}
67411 67414 {}
35873 65545 {}
35873 67424 {}
35873 67426 {}
65545 65547 {}
67424 67427 {}
35874 65552 {}
35874 67435 {}
35874 67437 {}
65552 65558 {}
67435 67438 {}
35875 65566 {}
35875 67446 {}
35875 67448 {}
65566 65568 {}
67446 67449 {}
35876 65573 {}
35876 67459 {}
35876 67461 {}
65573 65575 {}
67459 67462 {}
35877 65580 {}
35877 67472 {}
35877 67474 {}
65580 65582 {}
67472 67475 {}
35878 65587 {}
35878 67485 {}
35878 67487 {}
65587 65589 {}
67485 67488 {}
35879 65594 {}
35879 67498 {}
35879 67500 {}
65594 65596 {}
67498 67501 {}
35880 65601 {}
35880 67511 {}
35880 67513 {}
65601 65603 {}
67511 67514 {}
35881 65608 {}
35881 67524 {}
35881 67526 {}
65608 65610 {}
67524 67527 {}
35882 65615 {}
35882 67537 {}
35882 67539 {}
65615 65617 {}
67537 67540 {}
35883 65622 {}
35883 67550 {}
35883 67552 {}
65622 65624 {}
67550 67553 {}
35884 65629 {}
35884 67561 {}
35884 67563 {}
65629 65631 {}
67561 67564 {}
35885 65636 {}
35885 67572 {}
35885 67574 {}
65636 65638 {}
67572 67575 {}
35886 65643 {}
35886 67585 {}
35886 67587 {}
65643 65645 {}
67585 67588 {}
35887 65650 {}
35887 67596 {}
35887 67598 {}
65650 65652 {}
67596 67599 {}
35888 65657 {}
35888 67607 {}
35888 67609 {}
65657 65659 {}
67607 67610 {}
35889 65664 {}
35889 67620 {}
35889 67622 {}
65664 65666 {}
67620 67623 {}
35890 65671 {}
35890 67631 {}
35890 67633 {}
65671 65673 {}
67631 67634 {}
35891 65678 {}
35891 67644 {}
35891 67646 {}
65678 65680 {}
67644 67647 {}
35892 65685 {}
35892 67655 {}
35892 67657 {}
65685 65687 {}
67655 67658 {}
35893 65692 {}
35893 67666 {}
35893 67668 {}
65692 65694 {}
67666 67669 {}
35894 65699 {}
35894 67679 {}
35894 67681 {}
65699 65701 {}
67679 67682 {}
35895 65706 {}
35895 67692 {}
35895 67694 {}
65706 65708 {}
67692 67695 {}
35896 65713 {}
35896 67705 {}
35896 67707 {}
65713 65715 {}
67705 67708 {}
35897 65720 {}
35897 67716 {}
35897 67718 {}
65720 65722 {}
67716 67719 {}
35898 65727 {}
35898 67727 {}
35898 67729 {}
65727 65729 {}
67727 67730 {}
35899 65734 {}
35899 67738 {}
35899 67740 {}
65734 65736 {}
67738 67741 {}
35900 65741 {}
35900 67749 {}
35900 67751 {}
65741 65743 {}
67749 67752 {}
35901 65748 {}
35901 67762 {}
35901 67764 {}
65748 65750 {}
67762 67765 {}
35902 65755 {}
35902 67773 {}
35902 67775 {}
65755 65757 {}
67773 67776 {}
35903 65762 {}
35903 67784 {}
35903 67786 {}
65762 65764 {}
67784 67787 {}
35904 65769 {}
35904 67795 {}
35904 67797 {}
65769 65771 {}
67795 67798 {}
35905 65776 {}
35905 67808 {}
35905 67810 {}
65776 65778 {}
67808 67811 {}
35906 65783 {}
35906 67819 {}
35906 67821 {}
65783 65785 {}
67819 67822 {}
35907 65790 {}
35907 67832 {}
35907 67834 {}
65790 65792 {}
67832 67835 {}
35908 65796 {}
35908 67843 {}
35908 67845 {}
65796 65798 {}
67843 67846 {}
35909 65800 {}
35909 67854 {}
35909 67856 {}
65800 65802 {}
67854 67857 {}
35910 65804 {}
35910 67867 {}
35910 67869 {}
65804 65806 {}
67867 67870 {}
35911 65808 {}
35911 67878 {}
35911 67880 {}
65808 65810 {}
67878 67881 {}
35912 65812 {}
35912 67891 {}
35912 67893 {}
65812 65814 {}
67891 67894 {}
35913 65816 {}
35913 67904 {}
35913 67906 {}
65816 65818 {}
67904 67907 {}
35914 65820 {}
35914 67917 {}
35914 67919 {}
65820 65822 {}
67917 67920 {}
35915 65824 {}
35915 67928 {}
35915 67930 {}
65824 65826 {}
67928 67931 {}
35916 65828 {}
35916 67939 {}
35916 67941 {}
65828 65830 {}
67939 67942 {}
35917 65832 {}
35917 67952 {}
35917 67954 {}
65832 65834 {}
67952 67955 {}
35918 36586 {}
35918 36588 {}
35918 65836 {}
36586 36589 {}
65836 65838 {}
35919 36603 {}
35919 36605 {}
35919 65840 {}
36603 36606 {}
65840 65842 {}
35920 36614 {}
35920 36616 {}
35920 65844 {}
36614 36617 {}
65844 65846 {}
35921 36627 {}
35921 36629 {}
35921 65848 {}
36627 36630 {}
65848 65850 {}
35922 36640 {}
35922 36642 {}
35922 65852 {}
36640 36643 {}
65852 65854 {}
35923 36653 {}
35923 36655 {}
35923 65856 {}
36653 36656 {}
65856 65858 {}
35924 36666 {}
35924 36668 {}
35924 65860 {}
36666 36669 {}
65860 65862 {}
35925 36679 {}
35925 36681 {}
35925 65864 {}
36679 36682 {}
65864 65866 {}
35926 36692 {}
35926 36694 {}
35926 65868 {}
36692 36695 {}
65868 65870 {}
35927 36705 {}
35927 36707 {}
35927 65872 {}
36705 36708 {}
65872 65874 {}
35928 36718 {}
35928 36720 {}
35928 65876 {}
36718 36721 {}
65876 65878 {}
35929 36729 {}
35929 36731 {}
35929 65880 {}
36729 36732 {}
65880 65882 {}
35930 36740 {}
35930 36742 {}
35930 65884 {}
36740 36743 {}
65884 65886 {}
35931 36753 {}
35931 36755 {}
35931 65888 {}
36753 36756 {}
65888 65890 {}
35932 36764 {}
35932 36766 {}
35932 65892 {}
36764 36767 {}
65892 65894 {}
35933 36777 {}
35933 36779 {}
35933 65896 {}
36777 36780 {}
65896 65898 {}
35934 36788 {}
35934 36790 {}
35934 65900 {}
36788 36791 {}
65900 65902 {}
35935 36801 {}
35935 36803 {}
35935 65904 {}
36801 36804 {}
65904 65906 {}
35936 36812 {}
35936 36814 {}
35936 65908 {}
36812 36815 {}
65908 65910 {}
35937 36823 {}
35937 36825 {}
35937 65912 {}
36823 36826 {}
65912 65914 {}
35938 36836 {}
35938 36838 {}
35938 65916 {}
36836 36839 {}
65916 65918 {}
35939 36847 {}
35939 36849 {}
35939 65920 {}
36847 36850 {}
65920 65922 {}
35940 36860 {}
35940 36862 {}
35940 65924 {}
36860 36863 {}
65924 65926 {}
35941 36871 {}
35941 36873 {}
35941 65928 {}
36871 36874 {}
65928 65930 {}
35942 36884 {}
35942 36886 {}
35942 65932 {}
36884 36887 {}
65932 65934 {}
35943 36895 {}
35943 36897 {}
35943 65936 {}
36895 36898 {}
65936 65938 {}
35944 36906 {}
35944 36908 {}
35944 65940 {}
36906 36909 {}
65940 65942 {}
35945 36919 {}
35945 36921 {}
35945 65944 {}
36919 36922 {}
65944 65946 {}
35946 36932 {}
35946 36934 {}
35946 65948 {}
36932 36935 {}
65948 65950 {}
35947 36945 {}
35947 36947 {}
35947 65952 {}
36945 36948 {}
65952 65954 {}
35948 36956 {}
35948 36958 {}
35948 65956 {}
36956 36959 {}
65956 65958 {}
35949 36969 {}
35949 36971 {}
35949 65960 {}
36969 36972 {}
65960 65962 {}
35950 36982 {}
35950 36984 {}
35950 65964 {}
36982 36985 {}
65964 65966 {}
35951 36993 {}
35951 36995 {}
35951 65968 {}
36993 36996 {}
65968 65970 {}
35952 37004 {}
35952 37006 {}
35952 65972 {}
37004 37007 {}
65972 65974 {}
35953 37017 {}
35953 37019 {}
35953 65976 {}
37017 37020 {}
65976 65978 {}
35954 37030 {}
35954 37032 {}
35954 65980 {}
37030 37033 {}
65980 65982 {}
35955 37043 {}
35955 37045 {}
35955 65984 {}
37043 37046 {}
65984 65986 {}
35956 37056 {}
35956 37058 {}
35956 65988 {}
37056 37059 {}
65988 65990 {}
35957 37067 {}
35957 37069 {}
35957 65992 {}
37067 37070 {}
65992 65994 {}
35958 37080 {}
35958 37082 {}
35958 65996 {}
37080 37083 {}
65996 65998 {}
35959 37093 {}
35959 37095 {}
35959 66000 {}
37093 37096 {}
66000 66002 {}
35960 37106 {}
35960 37108 {}
35960 66004 {}
37106 37109 {}
66004 66006 {}
35961 37117 {}
35961 37119 {}
35961 66008 {}
37117 37120 {}
66008 66010 {}
35962 37130 {}
35962 37132 {}
35962 66012 {}
37130 37133 {}
66012 66014 {}
35963 37143 {}
35963 37145 {}
35963 66016 {}
37143 37146 {}
66016 66018 {}
35964 37154 {}
35964 37156 {}
35964 66020 {}
37154 37157 {}
66020 66022 {}
35965 37165 {}
35965 37167 {}
35965 66024 {}
37165 37168 {}
66024 66026 {}
35966 37176 {}
35966 37178 {}
35966 66028 {}
37176 37179 {}
66028 66030 {}
35967 37189 {}
35967 37191 {}
35967 66032 {}
37189 37192 {}
66032 66034 {}
35968 37202 {}
35968 37204 {}
35968 66036 {}
37202 37205 {}
66036 66038 {}
35969 37215 {}
35969 37217 {}
35969 66040 {}
37215 37218 {}
66040 66042 {}
35970 37228 {}
35970 37230 {}
35970 66044 {}
37228 37231 {}
66044 66046 {}
35971 37239 {}
35971 37241 {}
35971 66048 {}
37239 37242 {}
66048 66050 {}
35972 37250 {}
35972 37252 {}
35972 66052 {}
37250 37253 {}
66052 66054 {}
35973 37263 {}
35973 37265 {}
35973 66056 {}
37263 37266 {}
66056 66058 {}
35974 37274 {}
35974 37276 {}
35974 66060 {}
37274 37277 {}
66060 66062 {}
35975 37287 {}
35975 37289 {}
35975 66064 {}
37287 37290 {}
66064 66066 {}
35976 37298 {}
35976 37300 {}
35976 66068 {}
37298 37301 {}
66068 66070 {}
35977 37309 {}
35977 37311 {}
35977 66072 {}
37309 37312 {}
66072 66074 {}
35978 37320 {}
35978 37322 {}
35978 66076 {}
37320 37323 {}
66076 66078 {}
35979 37331 {}
35979 37333 {}
35979 66080 {}
37331 37334 {}
66080 66082 {}
35980 37344 {}
35980 37346 {}
35980 66084 {}
37344 37347 {}
66084 66086 {}
35981 37355 {}
35981 37357 {}
35981 66088 {}
37355 37358 {}
66088 66090 {}
35982 37368 {}
35982 37370 {}
35982 66092 {}
37368 37371 {}
66092 66094 {}
35983 37381 {}
35983 37383 {}
35983 66096 {}
37381 37384 {}
66096 66098 {}
35984 37394 {}
35984 37396 {}
35984 66100 {}
37394 37397 {}
66100 66102 {}
35985 37405 {}
35985 37407 {}
35985 66104 {}
37405 37408 {}
66104 66106 {}
35986 37418 {}
35986 37420 {}
35986 66108 {}
37418 37421 {}
66108 66110 {}
35987 37429 {}
35987 37431 {}
35987 66112 {}
37429 37432 {}
66112 66114 {}
35988 37442 {}
35988 37444 {}
35988 66116 {}
37442 37445 {}
66116 66118 {}
35989 37455 {}
35989 37457 {}
35989 66120 {}
37455 37458 {}
66120 66122 {}
35990 37468 {}
35990 37470 {}
35990 66124 {}
37468 37471 {}
66124 66126 {}
35991 37481 {}
35991 37483 {}
35991 66128 {}
37481 37484 {}
66128 66130 {}
35992 37492 {}
35992 37494 {}
35992 66132 {}
37492 37495 {}
66132 66134 {}
35993 37503 {}
35993 37505 {}
35993 66136 {}
37503 37506 {}
66136 66138 {}
35994 37516 {}
35994 37518 {}
35994 66140 {}
37516 37519 {}
66140 66142 {}
35995 37529 {}
35995 37531 {}
35995 66144 {}
37529 37532 {}
66144 66146 {}
35996 37540 {}
35996 37542 {}
35996 66148 {}
37540 37543 {}
66148 66150 {}
35997 37553 {}
35997 37555 {}
35997 66152 {}
37553 37556 {}
66152 66154 {}
35998 37566 {}
35998 37568 {}
35998 66156 {}
37566 37569 {}
66156 66158 {}
35999 37577 {}
35999 37579 {}
35999 66160 {}
37577 37580 {}
66160 66162 {}
36000 37590 {}
36000 37592 {}
36000 66164 {}
37590 37593 {}
66164 66166 {}
36001 37603 {}
36001 37605 {}
36001 66168 {}
37603 37606 {}
66168 66170 {}
36002 37616 {}
36002 37618 {}
36002 66172 {}
37616 37619 {}
66172 66174 {}
36003 37627 {}
36003 37629 {}
36003 66176 {}
37627 37630 {}
66176 66178 {}
36004 37640 {}
36004 37642 {}
36004 66180 {}
37640 37643 {}
66180 66182 {}
36005 37653 {}
36005 37655 {}
36005 66184 {}
37653 37656 {}
66184 66186 {}
36006 37666 {}
36006 37668 {}
36006 66188 {}
37666 37669 {}
66188 66190 {}
36007 37679 {}
36007 37681 {}
36007 66192 {}
37679 37682 {}
66192 66194 {}
36008 37690 {}
36008 37692 {}
36008 66196 {}
37690 37693 {}
66196 66198 {}
36009 37701 {}
36009 37703 {}
36009 66200 {}
37701 37704 {}
66200 66202 {}
36010 37712 {}
36010 37714 {}
36010 66204 {}
37712 37715 {}
66204 66206 {}
36011 37725 {}
36011 37727 {}
36011 66208 {}
37725 37728 {}
66208 66210 {}
36012 37736 {}
36012 37738 {}
36012 66212 {}
37736 37739 {}
66212 66214 {}
36013 37747 {}
36013 37749 {}
36013 66216 {}
37747 37750 {}
66216 66218 {}
36014 37760 {}
36014 37762 {}
36014 66220 {}
37760 37763 {}
66220 66222 {}
36015 37773 {}
36015 37775 {}
36015 66224 {}
37773 37776 {}
66224 66226 {}
36016 37784 {}
36016 37786 {}
36016 66228 {}
37784 37787 {}
66228 66230 {}
36017 37795 {}
36017 37797 {}
36017 66232 {}
37795 37798 {}
66232 66234 {}
36018 37808 {}
36018 37810 {}
36018 66236 {}
37808 37811 {}
66236 66238 {}
36019 37821 {}
36019 37823 {}
36019 66240 {}
37821 37824 {}
66240 66242 {}
36020 37834 {}
36020 37836 {}
36020 66244 {}
37834 37837 {}
66244 66246 {}
36021 37845 {}
36021 37847 {}
36021 66248 {}
37845 37848 {}
66248 66250 {}
36022 37856 {}
36022 37858 {}
36022 66252 {}
37856 37859 {}
66252 66254 {}
36023 37867 {}
36023 37869 {}
36023 66256 {}
37867 37870 {}
66256 66258 {}
36024 37880 {}
36024 37882 {}
36024 66260 {}
37880 37883 {}
66260 66262 {}
36025 37891 {}
36025 37893 {}
36025 66264 {}
37891 37894 {}
66264 66266 {}
36026 37902 {}
36026 37904 {}
36026 66268 {}
37902 37905 {}
66268 66270 {}
36027 37913 {}
36027 37915 {}
36027 66272 {}
37913 37916 {}
66272 66274 {}
36028 37924 {}
36028 37926 {}
36028 66276 {}
37924 37927 {}
66276 66278 {}
36029 37937 {}
36029 37939 {}
36029 66280 {}
37937 37940 {}
66280 66282 {}
36030 37950 {}
36030 37952 {}
36030 66284 {}
37950 37953 {}
66284 66286 {}
36031 37961 {}
36031 37963 {}
36031 66288 {}
37961 37964 {}
66288 66290 {}
36032 37974 {}
36032 37976 {}
36032 66292 {}
37974 37977 {}
66292 66294 {}
36033 37985 {}
36033 37987 {}
36033 66296 {}
37985 37988 {}
66296 66298 {}
36034 37998 {}
36034 38000 {}
36034 66300 {}
37998 38001 {}
66300 66302 {}
36035 38011 {}
36035 38013 {}
36035 66304 {}
38011 38014 {}
66304 66306 {}
38148 38186 {}
38148 38189 {}
38148 38338 {}
36037 38097 {}
36037 38148 {}
36037 38360 {}
38097 38098 {}
38097 38346 {}
38360 38438 {}
36038 38099 {}
36038 38192 {}
36038 38353 {}
38099 38100 {}
38099 38322 {}
38192 38193 {}
38192 38324 {}
38353 38489 {}
36039 38105 {}
36039 38109 {}
36039 38196 {}
36039 38457 {}
38105 38106 {}
38105 38446 {}
38196 38197 {}
38196 38450 {}
38457 38487 {}
36040 38107 {}
36040 38484 {}
38484 38485 {}
36041 38117 {}
36041 38202 {}
36041 38556 {}
38117 38118 {}
38117 38539 {}
38202 38203 {}
38202 38541 {}
38556 38564 {}
36042 38119 {}
36042 38204 {}
36042 38546 {}
38119 38120 {}
38119 38529 {}
38204 38205 {}
38204 38531 {}
38546 38566 {}
36043 38121 {}
36043 38206 {}
36043 38535 {}
36043 38538 {}
38121 38122 {}
38121 38312 {}
38206 38207 {}
38206 38314 {}
38535 38536 {}
38538 38568 {}
36044 38131 {}
36044 38216 {}
36044 38280 {}
38131 38132 {}
38131 38263 {}
38216 38217 {}
38216 38265 {}
38280 38578 {}
36045 38139 {}
36045 38224 {}
36045 38262 {}
38139 38140 {}
38139 38245 {}
38224 38225 {}
38224 38247 {}
38262 38604 {}
36046 38143 {}
36046 38228 {}
36046 38236 {}
38143 38144 {}
38228 38229 {}
38236 38243 {}
36047 38677 {}
38677 38678 {}
38677 38680 {}
38677 38685 {}
36048 38683 {}
38683 38684 {}
38683 38686 {}
38683 38691 {}
36049 38707 {}
38707 38708 {}
38707 38710 {}
38707 38713 {}
36050 38732 {}
38732 38733 {}
38732 38734 {}
38732 38737 {}
36051 38744 {}
38744 38745 {}
38744 38746 {}
38744 38751 {}
36052 38749 {}
38749 38750 {}
38749 38752 {}
38749 38757 {}
36053 38762 {}
38762 38763 {}
38762 38764 {}
38762 38767 {}
36054 38773 {}
38773 38774 {}
38773 38776 {}
38773 38779 {}
36055 38809 {}
38809 38810 {}
38809 38812 {}
38809 38815 {}
36056 38816 {}
38816 38817 {}
38816 38818 {}
38816 38823 {}
36057 38828 {}
38828 38829 {}
38828 38830 {}
38828 38835 {}
36058 38833 {}
38833 38834 {}
38833 38836 {}
38833 38839 {}
36059 38851 {}
38851 38853 {}
36060 38058 {}
36060 38080 {}
38058 38059 {}
36061 40435 {}
36061 42192 {}
36061 43945 {}
36061 45706 {}
36061 52016 {}
36061 53763 {}
36061 57969 {}
36061 59698 {}
40435 40437 {}
42192 42193 {}
43945 43947 {}
45706 45707 {}
52016 52017 {}
53763 53765 {}
57969 57971 {}
59698 59700 {}
36062 40381 {}
36062 42132 {}
36062 43887 {}
36062 45629 {}
36062 51971 {}
36062 53716 {}
36062 57901 {}
36062 59639 {}
40381 40383 {}
42132 42133 {}
43887 43889 {}
45629 45631 {}
51971 51973 {}
53716 53717 {}
57901 57903 {}
59639 59640 {}
36063 40354 {}
36063 42099 {}
36063 43855 {}
36063 45580 {}
36063 51925 {}
36063 53687 {}
36063 57864 {}
36063 59595 {}
40354 40355 {}
42099 42101 {}
43855 43857 {}
45580 45581 {}
51925 51927 {}
53687 53689 {}
57864 57865 {}
59595 59596 {}
36064 40317 {}
36064 42042 {}
36064 43775 {}
36064 45552 {}
36064 51865 {}
36064 53609 {}
36064 57791 {}
36064 59535 {}
40317 40319 {}
42042 42043 {}
43775 43789 {}
45552 45553 {}
51865 51867 {}
53609 53611 {}
57791 57793 {}
59535 59536 {}
36065 40236 {}
36065 41991 {}
36065 43759 {}
36065 45506 {}
36065 51815 {}
36065 53566 {}
36065 57759 {}
36065 59506 {}
40236 40237 {}
41991 41993 {}
43759 43761 {}
45506 45507 {}
51815 51817 {}
53566 53567 {}
57759 57761 {}
59506 59508 {}
36066 40181 {}
36066 41953 {}
36066 43688 {}
36066 45430 {}
36066 51798 {}
36066 53506 {}
36066 57692 {}
36066 59434 {}
40181 40183 {}
41953 41955 {}
43688 43689 {}
45430 45431 {}
51798 51799 {}
53506 53507 {}
57692 57693 {}
59434 59436 {}
36067 40128 {}
36067 41906 {}
36067 43657 {}
36067 45389 {}
36067 51724 {}
36067 53474 {}
36067 57666 {}
36067 59413 {}
40128 40130 {}
41906 41908 {}
43657 43658 {}
45389 45390 {}
51724 51726 {}
53474 53476 {}
57666 57668 {}
59413 59415 {}
36068 40078 {}
36068 40739 {}
36068 43593 {}
36068 44220 {}
36068 51675 {}
36068 52294 {}
36068 57605 {}
36068 58198 {}
40078 40079 {}
40739 40740 {}
43593 43594 {}
44220 44224 {}
51675 51677 {}
52294 52298 {}
57605 57607 {}
58198 58204 {}
36069 40057 {}
36069 42275 {}
36069 43531 {}
36069 45767 {}
36069 51632 {}
36069 53879 {}
36069 57537 {}
36069 59797 {}
40057 40058 {}
42275 42276 {}
43531 43533 {}
45767 45768 {}
51632 51634 {}
53879 53880 {}
57537 57538 {}
59797 59799 {}
36070 39975 {}
36070 43476 {}
36070 45899 {}
36070 45989 {}
36070 51567 {}
36070 53960 {}
36070 57485 {}
36070 59898 {}
39975 39977 {}
43476 43478 {}
45899 45901 {}
45989 45991 {}
51567 51569 {}
53960 53961 {}
57485 57487 {}
59898 59899 {}
36071 39923 {}
36071 43414 {}
36071 46119 {}
36071 46218 {}
36071 51529 {}
36071 54096 {}
36071 57418 {}
36071 60030 {}
39923 39924 {}
43414 43415 {}
46119 46121 {}
46218 46219 {}
51529 51530 {}
54096 54098 {}
57418 57420 {}
60030 60032 {}
36072 39861 {}
36072 43377 {}
36072 46322 {}
36072 46427 {}
36072 51438 {}
36072 54223 {}
36072 57367 {}
36072 60137 {}
39861 39863 {}
43377 43378 {}
46322 46323 {}
46427 46429 {}
51438 51439 {}
54223 54224 {}
57367 57369 {}
60137 60139 {}
36073 39831 {}
36073 43334 {}
36073 46563 {}
36073 46637 {}
36073 51399 {}
36073 54321 {}
36073 57324 {}
36073 60242 {}
39831 39832 {}
43334 43335 {}
46563 46565 {}
46637 46665 {}
51399 51400 {}
54321 54323 {}
57324 57326 {}
60242 60244 {}
36074 39765 {}
36074 43262 {}
36074 46778 {}
36074 46864 {}
36074 51365 {}
36074 54416 {}
36074 57256 {}
36074 60370 {}
39765 39766 {}
43262 43263 {}
46778 46780 {}
46864 46874 {}
51365 51367 {}
54416 54418 {}
57256 57257 {}
60370 60371 {}
36075 39711 {}
36075 43209 {}
36075 46979 {}
36075 47098 {}
36075 51287 {}
36075 54542 {}
36075 57229 {}
36075 60473 {}
39711 39717 {}
43209 43210 {}
46979 46980 {}
47098 47100 {}
51287 51288 {}
54542 54543 {}
57229 57230 {}
60473 60474 {}
36076 39682 {}
36076 43176 {}
36076 47182 {}
36076 47313 {}
36076 51253 {}
36076 54643 {}
36076 57174 {}
36076 60578 {}
39682 39684 {}
43176 43177 {}
47182 47184 {}
47313 47314 {}
51253 51255 {}
54643 54644 {}
57174 57175 {}
60578 60580 {}
36077 39610 {}
36077 43126 {}
36077 47422 {}
36077 47500 {}
36077 51172 {}
36077 54787 {}
36077 57098 {}
36077 60692 {}
39610 39612 {}
43126 43127 {}
47422 47424 {}
47500 47529 {}
51172 51173 {}
54787 54789 {}
57098 57099 {}
60692 60694 {}
36078 39552 {}
36078 43077 {}
36078 47628 {}
36078 47741 {}
36078 51152 {}
36078 54901 {}
36078 57064 {}
36078 60832 {}
39552 39553 {}
43077 43078 {}
47628 47630 {}
47741 47743 {}
51152 51154 {}
54901 54903 {}
57064 57066 {}
60832 60834 {}
36079 39520 {}
36079 43001 {}
36079 47830 {}
36079 47937 {}
36079 51078 {}
36079 55011 {}
36079 57016 {}
36079 60942 {}
39520 39522 {}
43001 43003 {}
47830 47832 {}
47937 47941 {}
51078 51079 {}
55011 55013 {}
57016 57017 {}
60942 60944 {}
36080 39460 {}
36080 42948 {}
36080 48055 {}
36080 48176 {}
36080 51031 {}
36080 55101 {}
36080 56948 {}
36080 61050 {}
39460 39461 {}
42948 42950 {}
48055 48057 {}
48176 48178 {}
51031 51032 {}
55101 55103 {}
56948 56950 {}
61050 61051 {}
36081 39412 {}
36081 42908 {}
36081 48251 {}
36081 48331 {}
36081 50991 {}
36081 55226 {}
36081 56913 {}
36081 61163 {}
39412 39414 {}
42908 42909 {}
48251 48252 {}
48331 48332 {}
50991 50993 {}
55226 55227 {}
56913 56915 {}
61163 61164 {}
36082 39332 {}
36082 42861 {}
36082 48446 {}
36082 48512 {}
36082 50919 {}
36082 55300 {}
36082 56859 {}
36082 61256 {}
39332 39334 {}
42861 42863 {}
48446 48448 {}
48512 48514 {}
50919 50921 {}
55300 55302 {}
56859 56861 {}
61256 61258 {}
36083 39301 {}
36083 42777 {}
36083 48594 {}
36083 48668 {}
36083 50844 {}
36083 55405 {}
36083 56793 {}
36083 61337 {}
39301 39303 {}
42777 42778 {}
48594 48596 {}
48668 48670 {}
50844 50846 {}
55405 55407 {}
56793 56794 {}
61337 61338 {}
36084 38927 {}
36084 42414 {}
36084 48783 {}
36084 48859 {}
36084 50457 {}
36084 55499 {}
36084 56437 {}
36084 61404 {}
38927 38928 {}
42414 42418 {}
48783 48785 {}
48859 48861 {}
50457 50458 {}
55499 55500 {}
56437 56438 {}
61404 61406 {}
36085 40612 {}
36085 44109 {}
36085 48921 {}
36085 49020 {}
36085 52202 {}
36085 55577 {}
36085 58128 {}
36085 61524 {}
40612 40614 {}
44109 44110 {}
48921 48923 {}
49020 49021 {}
52202 52204 {}
55577 55578 {}
58128 58130 {}
61524 61526 {}
36086 41218 {}
36086 44679 {}
36086 49089 {}
36086 49175 {}
36086 52789 {}
36086 55672 {}
36086 58720 {}
36086 61606 {}
41218 41220 {}
44679 44680 {}
49089 49091 {}
49175 49177 {}
52789 52790 {}
55672 55674 {}
58720 58722 {}
61606 61608 {}
36087 41161 {}
36087 44653 {}
36087 49259 {}
36087 49338 {}
36087 52710 {}
36087 55741 {}
36087 58662 {}
36087 61692 {}
41161 41163 {}
44653 44655 {}
49259 49261 {}
49338 49339 {}
52710 52711 {}
55741 55743 {}
58662 58663 {}
61692 61694 {}
36088 41081 {}
36088 44568 {}
36088 49433 {}
36088 49537 {}
36088 52674 {}
36088 55848 {}
36088 58591 {}
36088 61775 {}
41081 41087 {}
44568 44569 {}
49433 49443 {}
49537 49539 {}
52674 52675 {}
55848 55850 {}
58591 58593 {}
61775 61776 {}
36089 41035 {}
36089 44527 {}
36089 49591 {}
36089 49707 {}
36089 52637 {}
36089 55919 {}
36089 58542 {}
36089 61863 {}
41035 41037 {}
44527 44529 {}
49591 49593 {}
49707 49709 {}
52637 52639 {}
55919 55921 {}
58542 58543 {}
61863 61864 {}
36090 40990 {}
36090 44482 {}
36090 49763 {}
36090 49848 {}
36090 52547 {}
36090 56031 {}
36090 58485 {}
36090 61940 {}
40990 40991 {}
44482 44483 {}
49763 49765 {}
49848 49850 {}
52547 52549 {}
56031 56032 {}
58485 58487 {}
61940 61942 {}
36091 40839 {}
36091 44353 {}
36091 49972 {}
36091 50054 {}
36091 52432 {}
36091 56100 {}
36091 58354 {}
36091 62039 {}
40839 40840 {}
44353 44354 {}
49972 49974 {}
50054 50056 {}
52432 52434 {}
56100 56102 {}
58354 58360 {}
62039 62040 {}
36092 41300 {}
36092 44792 {}
36092 50146 {}
36092 50209 {}
36092 52862 {}
36092 56191 {}
36092 58807 {}
36092 62120 {}
41300 41302 {}
44792 44794 {}
50146 50147 {}
50209 50211 {}
52862 52864 {}
56191 56193 {}
58807 58808 {}
62120 62122 {}
36093 40468 {}
36093 42209 {}
36093 43933 {}
36093 45684 {}
36093 52026 {}
36093 53757 {}
36093 57959 {}
36093 59684 {}
40468 40469 {}
42209 42211 {}
43933 43935 {}
45684 45685 {}
52026 52027 {}
53757 53789 {}
57959 57961 {}
59684 59686 {}
36094 40392 {}
36094 42159 {}
36094 43905 {}
36094 45645 {}
36094 51984 {}
36094 53742 {}
36094 57913 {}
36094 59649 {}
40392 40393 {}
42159 42161 {}
43905 43907 {}
45645 45647 {}
51984 51985 {}
53742 53743 {}
57913 57915 {}
59649 59650 {}
36095 40368 {}
36095 42092 {}
36095 43845 {}
36095 45605 {}
36095 51938 {}
36095 53691 {}
36095 57851 {}
36095 59611 {}
40368 40369 {}
42092 42093 {}
43845 43847 {}
45605 45607 {}
51938 51939 {}
53691 53693 {}
57851 57853 {}
59611 59612 {}
36096 40285 {}
36096 42041 {}
36096 43776 {}
36096 45524 {}
36096 51862 {}
36096 53641 {}
36096 57787 {}
36096 59545 {}
40285 40287 {}
42041 42043 {}
43776 43797 {}
45524 45525 {}
51862 51863 {}
53641 53643 {}
57787 57789 {}
59545 59546 {}
36097 40246 {}
36097 41977 {}
36097 43749 {}
36097 45474 {}
36097 51821 {}
36097 53577 {}
36097 57769 {}
36097 59520 {}
40246 40247 {}
41977 41979 {}
43749 43751 {}
45474 45475 {}
51821 51823 {}
53577 53579 {}
57769 57771 {}
59520 59522 {}
36098 40186 {}
36098 41927 {}
36098 43684 {}
36098 45455 {}
36098 51772 {}
36098 53510 {}
36098 57724 {}
36098 59456 {}
40186 40187 {}
41927 41929 {}
43684 43685 {}
45455 45457 {}
51772 51773 {}
53510 53511 {}
57724 57725 {}
59456 59458 {}
36099 40133 {}
36099 41896 {}
36099 43625 {}
36099 45398 {}
36099 51711 {}
36099 53453 {}
36099 57661 {}
36099 59404 {}
40133 40134 {}
41896 41898 {}
43625 43626 {}
45398 45400 {}
51711 51732 {}
53453 53454 {}
57661 57662 {}
59404 59405 {}
36100 40105 {}
36100 40728 {}
36100 43574 {}
36100 44170 {}
36100 51685 {}
36100 52258 {}
36100 57579 {}
36100 58260 {}
40105 40107 {}
40728 40732 {}
43574 43576 {}
44170 44178 {}
51685 51687 {}
52258 52266 {}
57579 57581 {}
58260 58264 {}
36101 40053 {}
36101 42296 {}
36101 43517 {}
36101 45788 {}
36101 51623 {}
36101 53856 {}
36101 57558 {}
36101 59803 {}
40053 40054 {}
42296 42298 {}
43517 43519 {}
45788 45790 {}
51623 51624 {}
53856 53858 {}
57558 57560 {}
59803 59805 {}
36102 40002 {}
36102 43473 {}
36102 45872 {}
36102 45997 {}
36102 51560 {}
36102 53955 {}
36102 57507 {}
36102 59916 {}
40002 40003 {}
43473 43474 {}
45872 45873 {}
45997 45999 {}
51560 51561 {}
53955 53957 {}
57507 57509 {}
59916 59917 {}
36103 39949 {}
36103 43431 {}
36103 46114 {}
36103 46232 {}
36103 51497 {}
36103 54085 {}
36103 57429 {}
36103 60002 {}
39949 39950 {}
43431 43433 {}
46114 46115 {}
46232 46233 {}
51497 51498 {}
54085 54086 {}
57429 57430 {}
60002 60004 {}
36104 39893 {}
36104 43386 {}
36104 46312 {}
36104 46439 {}
36104 51463 {}
36104 54197 {}
36104 57378 {}
36104 60152 {}
39893 39895 {}
43386 43388 {}
46312 46313 {}
46439 46441 {}
51463 51465 {}
54197 54198 {}
57378 57379 {}
60152 60153 {}
36105 39815 {}
36105 43316 {}
36105 46549 {}
36105 46644 {}
36105 51416 {}
36105 54309 {}
36105 57336 {}
36105 60228 {}
39815 39816 {}
43316 43317 {}
46549 46551 {}
46644 46669 {}
51416 51418 {}
54309 54311 {}
57336 57338 {}
60228 60230 {}
36106 39776 {}
36106 43283 {}
36106 46768 {}
36106 46856 {}
36106 51351 {}
36106 54448 {}
36106 57265 {}
36106 60375 {}
39776 39778 {}
43283 43285 {}
46768 46770 {}
46856 46880 {}
51351 51353 {}
54448 54450 {}
57265 57267 {}
60375 60377 {}
36107 39710 {}
36107 43220 {}
36107 46975 {}
36107 47072 {}
36107 51312 {}
36107 54564 {}
36107 57216 {}
36107 60469 {}
39710 39725 {}
43220 43222 {}
46975 46976 {}
47072 47074 {}
51312 51314 {}
54564 54565 {}
57216 57218 {}
60469 60470 {}
36108 39650 {}
36108 43165 {}
36108 47204 {}
36108 47308 {}
36108 51226 {}
36108 54678 {}
36108 57169 {}
36108 60610 {}
39650 39652 {}
43165 43167 {}
47204 47206 {}
47308 47310 {}
51226 51227 {}
54678 54680 {}
57169 57171 {}
60610 60612 {}
36109 39622 {}
36109 43115 {}
36109 47428 {}
36109 47510 {}
36109 51198 {}
36109 54791 {}
36109 57123 {}
36109 60703 {}
39622 39624 {}
43115 43117 {}
47428 47430 {}
47510 47533 {}
51198 51199 {}
54791 54793 {}
57123 57125 {}
60703 60704 {}
36110 39563 {}
36110 43044 {}
36110 47607 {}
36110 47735 {}
36110 51120 {}
36110 54869 {}
36110 57052 {}
36110 60815 {}
39563 39565 {}
43044 43046 {}
47607 47608 {}
47735 47737 {}
51120 51122 {}
54869 54871 {}
57052 57054 {}
60815 60816 {}
36111 39510 {}
36111 42987 {}
36111 47852 {}
36111 47940 {}
36111 51086 {}
36111 55001 {}
36111 57022 {}
36111 60914 {}
39510 39512 {}
42987 42989 {}
47852 47854 {}
47940 47949 {}
51086 51087 {}
55001 55003 {}
57022 57023 {}
60914 60916 {}
36112 39455 {}
36112 42960 {}
36112 48065 {}
36112 48163 {}
36112 51009 {}
36112 55119 {}
36112 56956 {}
36112 61045 {}
39455 39457 {}
42960 42962 {}
48065 48067 {}
48163 48164 {}
51009 51010 {}
55119 55121 {}
56956 56958 {}
61045 61047 {}
36113 39416 {}
36113 42904 {}
36113 48255 {}
36113 48356 {}
36113 50966 {}
36113 55204 {}
36113 56896 {}
36113 61158 {}
39416 39418 {}
42904 42905 {}
48255 48256 {}
48356 48358 {}
50966 50967 {}
55204 55205 {}
56896 56897 {}
61158 61160 {}
36114 39327 {}
36114 42825 {}
36114 48429 {}
36114 48496 {}
36114 50912 {}
36114 55308 {}
36114 56823 {}
36114 61251 {}
39327 39328 {}
42825 42827 {}
48429 48430 {}
48496 48526 {}
50912 50913 {}
55308 55310 {}
56823 56825 {}
61251 61252 {}
36115 39274 {}
36115 42809 {}
36115 48606 {}
36115 48701 {}
36115 50849 {}
36115 55388 {}
36115 56785 {}
36115 61329 {}
39274 39275 {}
42809 42810 {}
48606 48608 {}
48701 48702 {}
50849 50850 {}
55388 55389 {}
56785 56786 {}
61329 61330 {}
36116 38942 {}
36116 42452 {}
36116 48766 {}
36116 48833 {}
36116 50464 {}
36116 55467 {}
36116 56424 {}
36116 61426 {}
38942 38946 {}
42452 42456 {}
48766 48767 {}
48833 48835 {}
50464 50470 {}
55467 55468 {}
56424 56428 {}
61426 61428 {}
36117 40623 {}
36117 44097 {}
36117 48926 {}
36117 49042 {}
36117 52192 {}
36117 55576 {}
36117 58118 {}
36117 61507 {}
40623 40624 {}
44097 44098 {}
48926 48927 {}
49042 49043 {}
52192 52194 {}
55576 55578 {}
58118 58120 {}
61507 61508 {}
36118 41208 {}
36118 44696 {}
36118 49111 {}
36118 49207 {}
36118 52762 {}
36118 55662 {}
36118 58710 {}
36118 61585 {}
41208 41210 {}
44696 44698 {}
49111 49113 {}
49207 49209 {}
52762 52764 {}
55662 55664 {}
58710 58712 {}
61585 61586 {}
36119 41156 {}
36119 44657 {}
36119 49256 {}
36119 49359 {}
36119 52735 {}
36119 55764 {}
36119 58645 {}
36119 61702 {}
41156 41157 {}
44657 44659 {}
49256 49257 {}
49359 49361 {}
52735 52737 {}
55764 55765 {}
58645 58647 {}
61702 61704 {}
36120 41080 {}
36120 44586 {}
36120 49435 {}
36120 49509 {}
36120 52683 {}
36120 55821 {}
36120 58599 {}
36120 61797 {}
41080 41095 {}
44586 44587 {}
49435 49449 {}
49509 49511 {}
52683 52685 {}
55821 55822 {}
58599 58601 {}
61797 61798 {}
36121 41053 {}
36121 44535 {}
36121 49602 {}
36121 49698 {}
36121 52612 {}
36121 55910 {}
36121 58559 {}
36121 61874 {}
41053 41055 {}
44535 44537 {}
49602 49603 {}
49698 49699 {}
52612 52613 {}
55910 55911 {}
58559 58561 {}
61874 61876 {}
36122 40973 {}
36122 44469 {}
36122 49796 {}
36122 49853 {}
36122 52543 {}
36122 56021 {}
36122 58472 {}
36122 61951 {}
40973 40975 {}
44469 44471 {}
49796 49797 {}
49853 49854 {}
52543 52545 {}
56021 56022 {}
58472 58493 {}
61951 61952 {}
36123 40864 {}
36123 44363 {}
36123 49962 {}
36123 50026 {}
36123 52454 {}
36123 56112 {}
36123 58353 {}
36123 62065 {}
40864 40866 {}
44363 44364 {}
49962 49964 {}
50026 50028 {}
52454 52456 {}
56112 56114 {}
58353 58368 {}
62065 62066 {}
36124 41301 {}
36124 44770 {}
36124 50118 {}
36124 50204 {}
36124 52849 {}
36124 56200 {}
36124 58778 {}
36124 62131 {}
41301 41302 {}
44770 44772 {}
50118 50119 {}
50204 50205 {}
52849 52850 {}
56200 56201 {}
58778 58780 {}
62131 62132 {}
36125 40431 {}
36125 42178 {}
36125 43960 {}
36125 45692 {}
36125 52037 {}
36125 53772 {}
36125 57948 {}
36125 59706 {}
40431 40433 {}
42178 42179 {}
43960 43961 {}
45692 45693 {}
52037 52039 {}
53772 53789 {}
57948 57949 {}
59706 59708 {}
36126 40403 {}
36126 42153 {}
36126 43888 {}
36126 45633 {}
36126 51987 {}
36126 53728 {}
36126 57891 {}
36126 59661 {}
40403 40405 {}
42153 42155 {}
43888 43889 {}
45633 45635 {}
51987 51989 {}
53728 53729 {}
57891 57893 {}
59661 59662 {}
36127 40363 {}
36127 42114 {}
36127 43834 {}
36127 45595 {}
36127 51948 {}
36127 53666 {}
36127 57841 {}
36127 59599 {}
40363 40365 {}
42114 42115 {}
43834 43835 {}
45595 45597 {}
51948 51949 {}
53666 53667 {}
57841 57843 {}
59599 59600 {}
36128 40291 {}
36128 42060 {}
36128 43788 {}
36128 45530 {}
36128 51875 {}
36128 53638 {}
36128 57802 {}
36128 59557 {}
40291 40293 {}
42060 42061 {}
43788 43797 {}
45530 45531 {}
51875 51877 {}
53638 53639 {}
57802 57803 {}
59557 59558 {}
36129 40258 {}
36129 41982 {}
36129 43756 {}
36129 45495 {}
36129 51844 {}
36129 53556 {}
36129 57774 {}
36129 59510 {}
40258 40259 {}
41982 41983 {}
43756 43757 {}
45495 45497 {}
51844 51845 {}
53556 53557 {}
57774 57775 {}
59510 59512 {}
36130 40196 {}
36130 41941 {}
36130 43673 {}
36130 45441 {}
36130 51797 {}
36130 53531 {}
36130 57688 {}
36130 59449 {}
40196 40197 {}
41941 41943 {}
43673 43675 {}
45441 45443 {}
51797 51799 {}
53531 53533 {}
57688 57689 {}
59449 59450 {}
36131 40143 {}
36131 41885 {}
36131 43646 {}
36131 45399 {}
36131 51721 {}
36131 53456 {}
36131 57645 {}
36131 59403 {}
40143 40144 {}
41885 41886 {}
43646 43648 {}
45399 45400 {}
51721 51732 {}
53456 53458 {}
57645 57646 {}
59403 59405 {}
36132 40099 {}
36132 40683 {}
36132 43575 {}
36132 44209 {}
36132 51690 {}
36132 52277 {}
36132 57612 {}
36132 58255 {}
40099 40101 {}
40683 40684 {}
43575 43576 {}
44209 44210 {}
51690 51691 {}
52277 52278 {}
57612 57613 {}
58255 58256 {}
36133 40043 {}
36133 42265 {}
36133 43540 {}
36133 45760 {}
36133 51611 {}
36133 53843 {}
36133 57527 {}
36133 59798 {}
40043 40044 {}
42265 42266 {}
43540 43541 {}
45760 45762 {}
51611 51612 {}
53843 53844 {}
57527 57528 {}
59798 59799 {}
36134 39976 {}
36134 43489 {}
36134 45878 {}
36134 45998 {}
36134 51582 {}
36134 53992 {}
36134 57486 {}
36134 59888 {}
39976 39977 {}
43489 43490 {}
45878 45879 {}
45998 45999 {}
51582 51583 {}
53992 53993 {}
57486 57487 {}
59888 59889 {}
36135 39922 {}
36135 43432 {}
36135 46098 {}
36135 46196 {}
36135 51518 {}
36135 54097 {}
36135 57422 {}
36135 60009 {}
39922 39924 {}
43432 43433 {}
46098 46099 {}
46196 46197 {}
51518 51520 {}
54097 54098 {}
57422 57424 {}
60009 60010 {}
36136 39889 {}
36136 43387 {}
36136 46308 {}
36136 46445 {}
36136 51442 {}
36136 54222 {}
36136 57396 {}
36136 60126 {}
39889 39891 {}
43387 43388 {}
46308 46309 {}
46445 46447 {}
51442 51443 {}
54222 54224 {}
57396 57397 {}
60126 60127 {}
36137 39830 {}
36137 43327 {}
36137 46531 {}
36137 46650 {}
36137 51394 {}
36137 54336 {}
36137 57337 {}
36137 60233 {}
39830 39832 {}
43327 43329 {}
46531 46533 {}
46650 46669 {}
51394 51396 {}
54336 54337 {}
57337 57338 {}
60233 60234 {}
36138 39755 {}
36138 43252 {}
36138 46757 {}
36138 46871 {}
36138 51333 {}
36138 54444 {}
36138 57270 {}
36138 60347 {}
39755 39756 {}
43252 43253 {}
46757 46758 {}
46871 46880 {}
51333 51335 {}
54444 54446 {}
57270 57271 {}
60347 60349 {}
36139 39716 {}
36139 43199 {}
36139 46987 {}
36139 47105 {}
36139 51298 {}
36139 54528 {}
36139 57203 {}
36139 60459 {}
39716 39725 {}
43199 43200 {}
46987 46988 {}
47105 47106 {}
51298 51300 {}
54528 54529 {}
57203 57204 {}
60459 60460 {}
36140 39656 {}
36140 43154 {}
36140 47197 {}
36140 47287 {}
36140 51232 {}
36140 54668 {}
36140 57179 {}
36140 60606 {}
39656 39658 {}
43154 43155 {}
47197 47198 {}
47287 47288 {}
51232 51233 {}
54668 54670 {}
57179 57181 {}
60606 60608 {}
36141 39628 {}
36141 43104 {}
36141 47423 {}
36141 47499 {}
36141 51186 {}
36141 54766 {}
36141 57130 {}
36141 60721 {}
39628 39630 {}
43104 43105 {}
47423 47424 {}
47499 47533 {}
51186 51187 {}
54766 54767 {}
57130 57131 {}
60721 60722 {}
36142 39542 {}
36142 43040 {}
36142 47639 {}
36142 47746 {}
36142 51126 {}
36142 54875 {}
36142 57079 {}
36142 60811 {}
39542 39543 {}
43040 43042 {}
47639 47640 {}
47746 47747 {}
51126 51128 {}
54875 54877 {}
57079 57080 {}
60811 60812 {}
36143 39499 {}
36143 43010 {}
36143 47831 {}
36143 47930 {}
36143 51074 {}
36143 54990 {}
36143 56994 {}
36143 60921 {}
39499 39500 {}
43010 43011 {}
47831 47832 {}
47930 47949 {}
51074 51075 {}
54990 54991 {}
56994 56995 {}
60921 60922 {}
36144 39465 {}
36144 42966 {}
36144 48070 {}
36144 48154 {}
36144 51041 {}
36144 55102 {}
36144 56939 {}
36144 61024 {}
39465 39467 {}
42966 42968 {}
48070 48071 {}
48154 48156 {}
51041 51042 {}
55102 55103 {}
56939 56940 {}
61024 61025 {}
36145 39391 {}
36145 42892 {}
36145 48276 {}
36145 48335 {}
36145 50977 {}
36145 55213 {}
36145 56892 {}
36145 61137 {}
39391 39392 {}
42892 42893 {}
48276 48278 {}
48335 48336 {}
50977 50979 {}
55213 55215 {}
56892 56893 {}
61137 61138 {}
36146 39355 {}
36146 42851 {}
36146 48425 {}
36146 48504 {}
36146 50934 {}
36146 55319 {}
36146 56849 {}
36146 61235 {}
39355 39356 {}
42851 42853 {}
48425 48426 {}
48504 48526 {}
50934 50935 {}
55319 55320 {}
56849 56851 {}
61235 61236 {}
36147 39280 {}
36147 42773 {}
36147 48612 {}
36147 48690 {}
36147 50859 {}
36147 55384 {}
36147 56771 {}
36147 61315 {}
39280 39281 {}
42773 42774 {}
48612 48614 {}
48690 48692 {}
50859 50860 {}
55384 55385 {}
56771 56772 {}
61315 61316 {}
36148 38945 {}
36148 42395 {}
36148 48762 {}
36148 48847 {}
36148 50503 {}
36148 55463 {}
36148 56381 {}
36148 61419 {}
38945 38946 {}
42395 42396 {}
48762 48763 {}
48847 48849 {}
50503 50504 {}
55463 55464 {}
56381 56382 {}
61419 61420 {}
36149 40613 {}
36149 44087 {}
36149 48936 {}
36149 49028 {}
36149 52181 {}
36149 55583 {}
36149 58107 {}
36149 61503 {}
40613 40614 {}
44087 44088 {}
48936 48937 {}
49028 49029 {}
52181 52182 {}
55583 55584 {}
58107 58108 {}
61503 61504 {}
36150 41192 {}
36150 44685 {}
36150 49104 {}
36150 49204 {}
36150 52777 {}
36150 55651 {}
36150 58699 {}
36150 61617 {}
41192 41194 {}
44685 44686 {}
49104 49105 {}
49204 49205 {}
52777 52778 {}
55651 55652 {}
58699 58700 {}
61617 61618 {}
36151 41165 {}
36151 44632 {}
36151 49270 {}
36151 49364 {}
36151 52741 {}
36151 55742 {}
36151 58658 {}
36151 61707 {}
41165 41167 {}
44632 44633 {}
49270 49271 {}
49364 49365 {}
52741 52743 {}
55742 55743 {}
58658 58659 {}
61707 61708 {}
36152 41086 {}
36152 44574 {}
36152 49425 {}
36152 49516 {}
36152 52656 {}
36152 55827 {}
36152 58600 {}
36152 61761 {}
41086 41095 {}
44574 44575 {}
49425 49449 {}
49516 49517 {}
52656 52657 {}
55827 55828 {}
58600 58601 {}
61761 61762 {}
36153 41036 {}
36153 44550 {}
36153 49613 {}
36153 49686 {}
36153 52623 {}
36153 55932 {}
36153 58528 {}
36153 61853 {}
41036 41037 {}
44550 44551 {}
49613 49615 {}
49686 49687 {}
52623 52625 {}
55932 55933 {}
58528 58529 {}
61853 61854 {}
36154 40986 {}
36154 44459 {}
36154 49785 {}
36154 49863 {}
36154 52544 {}
36154 55994 {}
36154 58482 {}
36154 61962 {}
40986 40987 {}
44459 44461 {}
49785 49787 {}
49863 49864 {}
52544 52545 {}
55994 55996 {}
58482 58493 {}
61962 61964 {}
36155 40843 {}
36155 44331 {}
36155 49951 {}
36155 50033 {}
36155 52433 {}
36155 56118 {}
36155 58359 {}
36155 62038 {}
40843 40844 {}
44331 44332 {}
49951 49952 {}
50033 50034 {}
52433 52434 {}
56118 56120 {}
58359 58368 {}
62038 62040 {}
36156 41269 {}
36156 44787 {}
36156 50128 {}
36156 50221 {}
36156 52884 {}
36156 56203 {}
36156 58800 {}
36156 62135 {}
41269 41270 {}
44787 44788 {}
50128 50129 {}
50221 50223 {}
52884 52886 {}
56203 56205 {}
58800 58802 {}
62135 62136 {}
36157 40446 {}
36157 42188 {}
36157 43946 {}
36157 45696 {}
36157 52044 {}
36157 53769 {}
36157 57947 {}
36157 59689 {}
40446 40447 {}
42188 42189 {}
43946 43947 {}
45696 45697 {}
52044 52045 {}
53769 53777 {}
57947 57949 {}
59689 59690 {}
36158 40386 {}
36158 42137 {}
36158 43895 {}
36158 45652 {}
36158 51972 {}
36158 53737 {}
36158 57898 {}
36158 59657 {}
40386 40387 {}
42137 42139 {}
43895 43897 {}
45652 45653 {}
51972 51973 {}
53737 53739 {}
57898 57899 {}
59657 59658 {}
36159 40357 {}
36159 42100 {}
36159 43833 {}
36159 45606 {}
36159 51933 {}
36159 53665 {}
36159 57874 {}
36159 59594 {}
40357 40359 {}
42100 42101 {}
43833 43835 {}
45606 45607 {}
51933 51935 {}
53665 53667 {}
57874 57875 {}
59594 59596 {}
36160 40292 {}
36160 42064 {}
36160 43780 {}
36160 45529 {}
36160 51876 {}
36160 53637 {}
36160 57820 {}
36160 59539 {}
40292 40293 {}
42064 42065 {}
43780 43811 {}
45529 45531 {}
51876 51877 {}
53637 53639 {}
57820 57821 {}
59539 59540 {}
36161 40254 {}
36161 41999 {}
36161 43733 {}
36161 45491 {}
36161 51843 {}
36161 53578 {}
36161 57760 {}
36161 59495 {}
40254 40255 {}
41999 42001 {}
43733 43735 {}
45491 45493 {}
51843 51845 {}
53578 53579 {}
57760 57761 {}
59495 59496 {}
36162 40182 {}
36162 41960 {}
36162 43705 {}
36162 45446 {}
36162 51788 {}
36162 53532 {}
36162 57702 {}
36162 59435 {}
40182 40183 {}
41960 41961 {}
43705 43707 {}
45446 45447 {}
51788 51789 {}
53532 53533 {}
57702 57703 {}
59435 59436 {}
36163 40129 {}
36163 41884 {}
36163 43642 {}
36163 45380 {}
36163 51715 {}
36163 53484 {}
36163 57644 {}
36163 59417 {}
40129 40130 {}
41884 41886 {}
43642 43644 {}
45380 45382 {}
51715 51746 {}
53484 53486 {}
57644 57646 {}
59417 59419 {}
36164 40083 {}
36164 40678 {}
36164 43603 {}
36164 44228 {}
36164 51676 {}
36164 52334 {}
36164 57593 {}
36164 58212 {}
40083 40085 {}
40678 40684 {}
43603 43604 {}
44228 44232 {}
51676 51677 {}
52334 52338 {}
57593 57595 {}
58212 58216 {}
36165 40024 {}
36165 42279 {}
36165 43539 {}
36165 45789 {}
36165 51610 {}
36165 53875 {}
36165 57541 {}
36165 59775 {}
40024 40026 {}
42279 42280 {}
43539 43541 {}
45789 45790 {}
51610 51612 {}
53875 53876 {}
57541 57542 {}
59775 59777 {}
36166 39987 {}
36166 43477 {}
36166 45877 {}
36166 46002 {}
36166 51568 {}
36166 53956 {}
36166 57498 {}
36166 59910 {}
39987 39989 {}
43477 43478 {}
45877 45879 {}
46002 46003 {}
51568 51569 {}
53956 53957 {}
57498 57499 {}
59910 59911 {}
36167 39913 {}
36167 43424 {}
36167 46097 {}
36167 46210 {}
36167 51514 {}
36167 54093 {}
36167 57428 {}
36167 60008 {}
39913 39914 {}
43424 43425 {}
46097 46099 {}
46210 46211 {}
51514 51516 {}
54093 54094 {}
57428 57430 {}
60008 60010 {}
36168 39858 {}
36168 43368 {}
36168 46330 {}
36168 46428 {}
36168 51448 {}
36168 54213 {}
36168 57395 {}
36168 60141 {}
39858 39859 {}
43368 43370 {}
46330 46331 {}
46428 46429 {}
51448 51449 {}
54213 54214 {}
57395 57397 {}
60141 60143 {}
36169 39841 {}
36169 43306 {}
36169 46564 {}
36169 46635 {}
36169 51385 {}
36169 54322 {}
36169 57315 {}
36169 60264 {}
39841 39842 {}
43306 43307 {}
46564 46565 {}
46635 46653 {}
51385 51386 {}
54322 54323 {}
57315 57316 {}
60264 60266 {}
36170 39777 {}
36170 43266 {}
36170 46756 {}
36170 46863 {}
36170 51366 {}
36170 54413 {}
36170 57292 {}
36170 60376 {}
39777 39778 {}
43266 43267 {}
46756 46758 {}
46863 46888 {}
51366 51367 {}
54413 54414 {}
57292 57293 {}
60376 60377 {}
36171 39708 {}
36171 43221 {}
36171 47001 {}
36171 47086 {}
36171 51303 {}
36171 54550 {}
36171 57235 {}
36171 60490 {}
39708 39739 {}
43221 43222 {}
47001 47002 {}
47086 47088 {}
51303 51304 {}
54550 54551 {}
57235 57236 {}
60490 60492 {}
36172 39657 {}
36172 43153 {}
36172 47183 {}
36172 47286 {}
36172 51231 {}
36172 54652 {}
36172 57170 {}
36172 60575 {}
39657 39658 {}
43153 43155 {}
47183 47184 {}
47286 47288 {}
51231 51233 {}
54652 54654 {}
57170 57171 {}
60575 60576 {}
36173 39611 {}
36173 43103 {}
36173 47400 {}
36173 47497 {}
36173 51176 {}
36173 54765 {}
36173 57124 {}
36173 60720 {}
39611 39612 {}
43103 43105 {}
47400 47402 {}
47497 47517 {}
51176 51177 {}
54765 54767 {}
57124 57125 {}
60720 60722 {}
36174 39564 {}
36174 43066 {}
36174 47620 {}
36174 47719 {}
36174 51127 {}
36174 54876 {}
36174 57065 {}
36174 60810 {}
39564 39565 {}
43066 43068 {}
47620 47622 {}
47719 47721 {}
51127 51128 {}
54876 54877 {}
57065 57066 {}
60810 60812 {}
36175 39498 {}
36175 43009 {}
36175 47843 {}
36175 47932 {}
36175 51090 {}
36175 54976 {}
36175 56990 {}
36175 60920 {}
39498 39500 {}
43009 43011 {}
47843 47844 {}
47932 47933 {}
51090 51091 {}
54976 54977 {}
56990 56991 {}
60920 60922 {}
36176 39456 {}
36176 42949 {}
36176 48056 {}
36176 48140 {}
36176 51018 {}
36176 55109 {}
36176 56957 {}
36176 61023 {}
39456 39457 {}
42949 42950 {}
48056 48057 {}
48140 48142 {}
51018 51020 {}
55109 55111 {}
56957 56958 {}
61023 61025 {}
36177 39390 {}
36177 42896 {}
36177 48277 {}
36177 48341 {}
36177 50960 {}
36177 55200 {}
36177 56891 {}
36177 61136 {}
39390 39392 {}
42896 42897 {}
48277 48278 {}
48341 48342 {}
50960 50961 {}
55200 55201 {}
56891 56893 {}
61136 61138 {}
36178 39336 {}
36178 42826 {}
36178 48424 {}
36178 48497 {}
36178 50930 {}
36178 55309 {}
36178 56824 {}
36178 61234 {}
39336 39338 {}
42826 42827 {}
48424 48426 {}
48497 48532 {}
50930 50931 {}
55309 55310 {}
56824 56825 {}
61234 61236 {}
36179 39279 {}
36179 42795 {}
36179 48595 {}
36179 48687 {}
36179 50845 {}
36179 55383 {}
36179 56807 {}
36179 61314 {}
39279 39281 {}
42795 42796 {}
48595 48596 {}
48687 48688 {}
50845 50846 {}
55383 55385 {}
56807 56808 {}
61314 61316 {}
36180 38912 {}
36180 42434 {}
36180 48761 {}
36180 48866 {}
36180 50500 {}
36180 55485 {}
36180 56376 {}
36180 61405 {}
38912 38916 {}
42434 42438 {}
48761 48763 {}
48866 48867 {}
50500 50504 {}
55485 55486 {}
56376 56382 {}
61405 61406 {}
36181 40617 {}
36181 44119 {}
36181 48922 {}
36181 49027 {}
36181 52180 {}
36181 55560 {}
36181 58106 {}
36181 61502 {}
40617 40618 {}
44119 44120 {}
48922 48923 {}
49027 49029 {}
52180 52182 {}
55560 55562 {}
58106 58108 {}
61502 61504 {}
36182 41215 {}
36182 44701 {}
36182 49090 {}
36182 49203 {}
36182 52772 {}
36182 55650 {}
36182 58698 {}
36182 61598 {}
41215 41216 {}
44701 44702 {}
49090 49091 {}
49203 49205 {}
52772 52774 {}
55650 55652 {}
58698 58700 {}
61598 61600 {}
36183 41155 {}
36183 44631 {}
36183 49269 {}
36183 49342 {}
36183 52742 {}
36183 55754 {}
36183 58672 {}
36183 61693 {}
41155 41157 {}
44631 44633 {}
49269 49271 {}
49342 49343 {}
52742 52743 {}
55754 55755 {}
58672 58673 {}
61693 61694 {}
36184 41078 {}
36184 44585 {}
36184 49440 {}
36184 49515 {}
36184 52673 {}
36184 55826 {}
36184 58604 {}
36184 61783 {}
41078 41109 {}
44585 44587 {}
49440 49457 {}
49515 49517 {}
52673 52675 {}
55826 55828 {}
58604 58605 {}
61783 61784 {}
36185 41043 {}
36185 44549 {}
36185 49614 {}
36185 49685 {}
36185 52606 {}
36185 55942 {}
36185 58538 {}
36185 61875 {}
41043 41045 {}
44549 44551 {}
49614 49615 {}
49685 49687 {}
52606 52607 {}
55942 55943 {}
58538 58539 {}
61875 61876 {}
36186 41000 {}
36186 44492 {}
36186 49782 {}
36186 49849 {}
36186 52570 {}
36186 56017 {}
36186 58476 {}
36186 61945 {}
41000 41001 {}
44492 44493 {}
49782 49783 {}
49849 49850 {}
52570 52571 {}
56017 56018 {}
58476 58507 {}
61945 61946 {}
36187 40849 {}
36187 44362 {}
36187 49950 {}
36187 50032 {}
36187 52445 {}
36187 56101 {}
36187 58351 {}
36187 62029 {}
40849 40850 {}
44362 44364 {}
49950 49952 {}
50032 50034 {}
52445 52446 {}
56101 56102 {}
58351 58382 {}
62029 62030 {}
36188 41291 {}
36188 44797 {}
36188 50114 {}
36188 50222 {}
36188 52859 {}
36188 56182 {}
36188 58789 {}
36188 62121 {}
41291 41292 {}
44797 44798 {}
50114 50115 {}
50222 50223 {}
52859 52860 {}
56182 56183 {}
58789 58790 {}
62121 62122 {}
36189 40445 {}
36189 42210 {}
36189 43937 {}
36189 45691 {}
36189 52015 {}
36189 53756 {}
36189 57973 {}
36189 59716 {}
40445 40447 {}
42210 42211 {}
43937 43939 {}
45691 45693 {}
52015 52017 {}
53756 53773 {}
57973 57975 {}
59716 59718 {}
36190 40408 {}
36190 42164 {}
36190 43899 {}
36190 45620 {}
36190 51966 {}
36190 53731 {}
36190 57914 {}
36190 59644 {}
40408 40409 {}
42164 42165 {}
43899 43901 {}
45620 45621 {}
51966 51967 {}
53731 53733 {}
57914 57915 {}
59644 59646 {}
36191 40336 {}
36191 42087 {}
36191 43827 {}
36191 45596 {}
36191 51934 {}
36191 53677 {}
36191 57863 {}
36191 59585 {}
40336 40337 {}
42087 42089 {}
43827 43829 {}
45596 45597 {}
51934 51935 {}
53677 53679 {}
57863 57865 {}
59585 59586 {}
36192 40313 {}
36192 42027 {}
36192 43773 {}
36192 45541 {}
36192 51894 {}
36192 53615 {}
36192 57819 {}
36192 59549 {}
40313 40315 {}
42027 42029 {}
43773 43805 {}
45541 45543 {}
51894 51895 {}
53615 53617 {}
57819 57821 {}
59549 59550 {}
36193 40241 {}
36193 42009 {}
36193 43745 {}
36193 45483 {}
36193 51825 {}
36193 53587 {}
36193 57747 {}
36193 59511 {}
40241 40243 {}
42009 42011 {}
43745 43747 {}
45483 45485 {}
51825 51827 {}
53587 53589 {}
57747 57749 {}
59511 59512 {}
36194 40213 {}
36194 41959 {}
36194 43695 {}
36194 45442 {}
36194 51766 {}
36194 53538 {}
36194 57710 {}
36194 59466 {}
40213 40215 {}
41959 41961 {}
43695 43697 {}
45442 45443 {}
51766 51767 {}
53538 53539 {}
57710 57711 {}
59466 59468 {}
36195 40160 {}
36195 41878 {}
36195 43634 {}
36195 45366 {}
36195 51708 {}
36195 53462 {}
36195 57656 {}
36195 59407 {}
40160 40162 {}
41878 41880 {}
43634 43636 {}
45366 45368 {}
51708 51740 {}
53462 53464 {}
57656 57658 {}
59407 59409 {}
36196 40110 {}
36196 40706 {}
36196 43607 {}
36196 44238 {}
36196 51663 {}
36196 52286 {}
36196 57611 {}
36196 58263 {}
40110 40111 {}
40706 40712 {}
43607 43608 {}
44238 44242 {}
51663 51665 {}
52286 52290 {}
57611 57613 {}
58263 58264 {}
36197 40047 {}
36197 42274 {}
36197 43549 {}
36197 45783 {}
36197 51633 {}
36197 53852 {}
36197 57536 {}
36197 59804 {}
40047 40048 {}
42274 42276 {}
43549 43551 {}
45783 45784 {}
51633 51634 {}
53852 53854 {}
57536 57538 {}
59804 59805 {}
36198 39979 {}
36198 43495 {}
36198 45889 {}
36198 45979 {}
36198 51555 {}
36198 53977 {}
36198 57494 {}
36198 59884 {}
39979 39981 {}
43495 43496 {}
45889 45891 {}
45979 45981 {}
51555 51557 {}
53977 53979 {}
57494 57495 {}
59884 59885 {}
36199 39945 {}
36199 43410 {}
36199 46109 {}
36199 46209 {}
36199 51506 {}
36199 54074 {}
36199 57454 {}
36199 60034 {}
39945 39946 {}
43410 43411 {}
46109 46111 {}
46209 46211 {}
51506 51508 {}
54074 54076 {}
57454 57456 {}
60034 60036 {}
36200 39867 {}
36200 43354 {}
36200 46340 {}
36200 46417 {}
36200 51464 {}
36200 54191 {}
36200 57373 {}
36200 60129 {}
39867 39869 {}
43354 43356 {}
46340 46341 {}
46417 46419 {}
51464 51465 {}
54191 54192 {}
57373 57375 {}
60129 60131 {}
36201 39827 {}
36201 43328 {}
36201 46541 {}
36201 46636 {}
36201 51395 {}
36201 54313 {}
36201 57346 {}
36201 60260 {}
39827 39828 {}
43328 43329 {}
46541 46543 {}
46636 46657 {}
51395 51396 {}
54313 54315 {}
57346 57348 {}
60260 60262 {}
36202 39786 {}
36202 43284 {}
36202 46750 {}
36202 46866 {}
36202 51343 {}
36202 54422 {}
36202 57266 {}
36202 60357 {}
39786 39788 {}
43284 43285 {}
46750 46752 {}
46866 46884 {}
51343 51345 {}
54422 54424 {}
57266 57267 {}
60357 60359 {}
36203 39701 {}
36203 43230 {}
36203 46991 {}
36203 47104 {}
36203 51299 {}
36203 54541 {}
36203 57212 {}
36203 60491 {}
39701 39733 {}
43230 43232 {}
46991 46992 {}
47104 47106 {}
51299 51300 {}
54541 54543 {}
57212 57214 {}
60491 60492 {}
36204 39678 {}
36204 43179 {}
36204 47214 {}
36204 47318 {}
36204 51243 {}
36204 54664 {}
36204 57162 {}
36204 60584 {}
39678 39680 {}
43179 43181 {}
47214 47216 {}
47318 47320 {}
51243 51245 {}
54664 54666 {}
57162 57163 {}
60584 60586 {}
36205 39600 {}
36205 43129 {}
36205 47429 {}
36205 47501 {}
36205 51204 {}
36205 54777 {}
36205 57102 {}
36205 60698 {}
39600 39602 {}
43129 43131 {}
47429 47430 {}
47501 47521 {}
51204 51205 {}
54777 54779 {}
57102 57103 {}
60698 60700 {}
36206 39573 {}
36206 43067 {}
36206 47642 {}
36206 47731 {}
36206 51148 {}
36206 54897 {}
36206 57056 {}
36206 60822 {}
39573 39575 {}
43067 43068 {}
47642 47644 {}
47731 47733 {}
51148 51150 {}
54897 54899 {}
57056 57058 {}
60822 60824 {}
36207 39492 {}
36207 42997 {}
36207 47839 {}
36207 47928 {}
36207 51073 {}
36207 54997 {}
36207 57015 {}
36207 60946 {}
39492 39494 {}
42997 42999 {}
47839 47840 {}
47928 47957 {}
51073 51075 {}
54997 54999 {}
57015 57017 {}
60946 60948 {}
36208 39448 {}
36208 42938 {}
36208 48043 {}
36208 48172 {}
36208 51019 {}
36208 55113 {}
36208 56938 {}
36208 61055 {}
39448 39449 {}
42938 42940 {}
48043 48045 {}
48172 48174 {}
51019 51020 {}
55113 55115 {}
56938 56940 {}
61055 61057 {}
36209 39402 {}
36209 42918 {}
36209 48283 {}
36209 48357 {}
36209 50982 {}
36209 55214 {}
36209 56917 {}
36209 61168 {}
39402 39404 {}
42918 42919 {}
48283 48284 {}
48357 48358 {}
50982 50983 {}
55214 55215 {}
56917 56919 {}
61168 61170 {}
36210 39323 {}
36210 42829 {}
36210 48418 {}
36210 48513 {}
36210 50933 {}
36210 55297 {}
36210 56827 {}
36210 61246 {}
39323 39324 {}
42829 42831 {}
48418 48420 {}
48513 48518 {}
50933 50935 {}
55297 55298 {}
56827 56829 {}
61246 61248 {}
36211 39291 {}
36211 42787 {}
36211 48584 {}
36211 48696 {}
36211 50876 {}
36211 55399 {}
36211 56775 {}
36211 61324 {}
39291 39293 {}
42787 42788 {}
48584 48586 {}
48696 48698 {}
50876 50878 {}
55399 55401 {}
56775 56776 {}
61324 61326 {}
36212 38874 {}
36212 42426 {}
36212 48755 {}
36212 48865 {}
36212 50508 {}
36212 55477 {}
36212 56444 {}
36212 61436 {}
38874 38882 {}
42426 42430 {}
48755 48757 {}
48865 48867 {}
50508 50512 {}
55477 55478 {}
56444 56448 {}
61436 61438 {}
36213 40627 {}
36213 44104 {}
36213 48953 {}
36213 49032 {}
36213 52174 {}
36213 55586 {}
36213 58100 {}
36213 61496 {}
40627 40628 {}
44104 44106 {}
48953 48955 {}
49032 49033 {}
52174 52176 {}
55586 55588 {}
58100 58102 {}
61496 61498 {}
36214 41204 {}
36214 44689 {}
36214 49121 {}
36214 49181 {}
36214 52773 {}
36214 55644 {}
36214 58724 {}
36214 61620 {}
41204 41206 {}
44689 44690 {}
49121 49123 {}
49181 49183 {}
52773 52774 {}
55644 55646 {}
58724 58726 {}
61620 61622 {}
36215 41166 {}
36215 44643 {}
36215 49288 {}
36215 49373 {}
36215 52724 {}
36215 55760 {}
36215 58650 {}
36215 61680 {}
41166 41167 {}
44643 44645 {}
49288 49289 {}
49373 49375 {}
52724 52725 {}
55760 55761 {}
58650 58651 {}
61680 61682 {}
36216 41071 {}
36216 44590 {}
36216 49426 {}
36216 49538 {}
36216 52687 {}
36216 55838 {}
36216 58581 {}
36216 61774 {}
41071 41103 {}
44590 44591 {}
49426 49453 {}
49538 49539 {}
52687 52689 {}
55838 55840 {}
58581 58583 {}
61774 61776 {}
36217 41047 {}
36217 44518 {}
36217 49618 {}
36217 49708 {}
36217 52628 {}
36217 55941 {}
36217 58560 {}
36217 61884 {}
41047 41049 {}
44518 44519 {}
49618 49619 {}
49708 49709 {}
52628 52629 {}
55941 55943 {}
58560 58561 {}
61884 61886 {}
36218 40978 {}
36218 44481 {}
36218 49791 {}
36218 49884 {}
36218 52575 {}
36218 56026 {}
36218 58469 {}
36218 61967 {}
40978 40979 {}
44481 44483 {}
49791 49793 {}
49884 49886 {}
52575 52577 {}
56026 56028 {}
58469 58501 {}
61967 61968 {}
36219 40865 {}
36219 44335 {}
36219 49944 {}
36219 50055 {}
36219 52441 {}
36219 56090 {}
36219 58344 {}
36219 62061 {}
40865 40866 {}
44335 44336 {}
49944 49946 {}
50055 50056 {}
52441 52442 {}
56090 56092 {}
58344 58376 {}
62061 62062 {}
36220 41290 {}
36220 44796 {}
36220 50124 {}
36220 50235 {}
36220 52880 {}
36220 56210 {}
36220 58801 {}
36220 62147 {}
41290 41292 {}
44796 44798 {}
50124 50125 {}
50235 50237 {}
52880 52882 {}
56210 56211 {}
58801 58802 {}
62147 62148 {}
36221 40454 {}
36221 42177 {}
36221 43955 {}
36221 45670 {}
36221 52012 {}
36221 53768 {}
36221 57963 {}
36221 59695 {}
40454 40455 {}
42177 42179 {}
43955 43957 {}
45670 45671 {}
52012 52013 {}
53768 53793 {}
57963 57965 {}
59695 59696 {}
36222 40385 {}
36222 42141 {}
36222 43877 {}
36222 45646 {}
36222 51993 {}
36222 53705 {}
36222 57892 {}
36222 59648 {}
40385 40387 {}
42141 42143 {}
43877 43879 {}
45646 45647 {}
51993 51995 {}
53705 53707 {}
57892 57893 {}
59648 59650 {}
36223 40331 {}
36223 42091 {}
36223 43849 {}
36223 45570 {}
36223 51912 {}
36223 53659 {}
36223 57873 {}
36223 59589 {}
40331 40333 {}
42091 42093 {}
43849 43851 {}
45570 45571 {}
51912 51913 {}
53659 53661 {}
57873 57875 {}
59589 59590 {}
36224 40303 {}
36224 42063 {}
36224 43784 {}
36224 45523 {}
36224 51872 {}
36224 53605 {}
36224 57798 {}
36224 59548 {}
40303 40305 {}
42063 42065 {}
43784 43791 {}
45523 45525 {}
51872 51873 {}
53605 53607 {}
57798 57799 {}
59548 59550 {}
36225 40245 {}
36225 41988 {}
36225 43750 {}
36225 45473 {}
36225 51847 {}
36225 53569 {}
36225 57737 {}
36225 59517 {}
40245 40247 {}
41988 41989 {}
43750 43751 {}
45473 45475 {}
51847 51849 {}
53569 53571 {}
57737 57739 {}
59517 59518 {}
36226 40185 {}
36226 41938 {}
36226 43683 {}
36226 45433 {}
36226 51771 {}
36226 53519 {}
36226 57714 {}
36226 59460 {}
40185 40187 {}
41938 41939 {}
43683 43685 {}
45433 45435 {}
51771 51773 {}
53519 53521 {}
57714 57715 {}
59460 59462 {}
36227 40132 {}
36227 41900 {}
36227 43624 {}
36227 45370 {}
36227 51710 {}
36227 53457 {}
36227 57660 {}
36227 59395 {}
40132 40134 {}
41900 41902 {}
43624 43626 {}
45370 45372 {}
51710 51728 {}
53457 53458 {}
57660 57662 {}
59395 59397 {}
36228 40087 {}
36228 40754 {}
36228 43571 {}
36228 44201 {}
36228 51653 {}
36228 52326 {}
36228 57590 {}
36228 58242 {}
40087 40089 {}
40754 40758 {}
43571 43572 {}
44201 44202 {}
51653 51655 {}
52326 52330 {}
57590 57591 {}
58242 58246 {}
36229 40046 {}
36229 42264 {}
36229 43528 {}
36229 45757 {}
36229 51622 {}
36229 53878 {}
36229 57526 {}
36229 59776 {}
40046 40048 {}
42264 42266 {}
43528 43529 {}
45757 45758 {}
51622 51624 {}
53878 53880 {}
57526 57528 {}
59776 59777 {}
36230 40001 {}
36230 43498 {}
36230 45871 {}
36230 46008 {}
36230 51559 {}
36230 53978 {}
36230 57493 {}
36230 59883 {}
40001 40003 {}
43498 43500 {}
45871 45873 {}
46008 46009 {}
51559 51561 {}
53978 53979 {}
57493 57495 {}
59883 59885 {}
36231 39948 {}
36231 43423 {}
36231 46113 {}
36231 46231 {}
36231 51496 {}
36231 54084 {}
36231 57450 {}
36231 60024 {}
39948 39950 {}
43423 43425 {}
46113 46115 {}
46231 46233 {}
51496 51498 {}
54084 54086 {}
57450 57452 {}
60024 60026 {}
36232 39879 {}
36232 43358 {}
36232 46334 {}
36232 46449 {}
36232 51473 {}
36232 54196 {}
36232 57377 {}
36232 60130 {}
39879 39881 {}
43358 43360 {}
46334 46335 {}
46449 46451 {}
51473 51475 {}
54196 54198 {}
57377 57379 {}
60130 60131 {}
36233 39805 {}
36233 43302 {}
36233 46554 {}
36233 46638 {}
36233 51384 {}
36233 54331 {}
36233 57310 {}
36233 60239 {}
39805 39806 {}
43302 43303 {}
46554 46555 {}
46638 46673 {}
51384 51386 {}
54331 54333 {}
57310 57312 {}
60239 60240 {}
36234 39768 {}
36234 43251 {}
36234 46772 {}
36234 46859 {}
36234 51356 {}
36234 54434 {}
36234 57259 {}
36234 60343 {}
39768 39770 {}
43251 43253 {}
46772 46774 {}
46859 46860 {}
51356 51357 {}
54434 54436 {}
57259 57261 {}
60343 60345 {}
36235 39712 {}
36235 43212 {}
36235 46965 {}
36235 47083 {}
36235 51290 {}
36235 54563 {}
36235 57238 {}
36235 60458 {}
39712 39719 {}
43212 43214 {}
46965 46966 {}
47083 47084 {}
51290 51292 {}
54563 54565 {}
57238 57240 {}
60458 60460 {}
36236 39668 {}
36236 43169 {}
36236 47208 {}
36236 47322 {}
36236 51225 {}
36236 54656 {}
36236 57147 {}
36236 60596 {}
39668 39670 {}
43169 43171 {}
47208 47210 {}
47322 47324 {}
51225 51227 {}
54656 54658 {}
57147 57149 {}
60596 60598 {}
36237 39632 {}
36237 43119 {}
36237 47401 {}
36237 47506 {}
36237 51197 {}
36237 54759 {}
36237 57097 {}
36237 60702 {}
39632 39634 {}
43119 43121 {}
47401 47402 {}
47506 47507 {}
51197 51199 {}
54759 54761 {}
57097 57099 {}
60702 60704 {}
36238 39555 {}
36238 43050 {}
36238 47638 {}
36238 47742 {}
36238 51138 {}
36238 54887 {}
36238 57074 {}
36238 60814 {}
39555 39557 {}
43050 43052 {}
47638 47640 {}
47742 47743 {}
51138 51140 {}
54887 54889 {}
57074 57076 {}
60814 60816 {}
36239 39514 {}
36239 43019 {}
36239 47838 {}
36239 47923 {}
36239 51068 {}
36239 55002 {}
36239 57012 {}
36239 60936 {}
39514 39516 {}
43019 43021 {}
47838 47840 {}
47923 47943 {}
51068 51069 {}
55002 55003 {}
57012 57013 {}
60936 60938 {}
36240 39433 {}
36240 42970 {}
36240 48033 {}
36240 48162 {}
36240 51044 {}
36240 55091 {}
36240 56967 {}
36240 61059 {}
39433 39435 {}
42970 42972 {}
48033 48035 {}
48162 48164 {}
51044 51046 {}
55091 55093 {}
56967 56968 {}
61059 61061 {}
36241 39384 {}
36241 42886 {}
36241 48264 {}
36241 48366 {}
36241 50959 {}
36241 55222 {}
36241 56895 {}
36241 61172 {}
39384 39386 {}
42886 42887 {}
48264 48266 {}
48366 48368 {}
50959 50961 {}
55222 55223 {}
56895 56897 {}
61172 61174 {}
36242 39345 {}
36242 42830 {}
36242 48428 {}
36242 48506 {}
36242 50907 {}
36242 55296 {}
36242 56828 {}
36242 61250 {}
39345 39346 {}
42830 42831 {}
48428 48430 {}
48506 48522 {}
50907 50909 {}
55296 55298 {}
56828 56829 {}
61250 61252 {}
36243 39273 {}
36243 42799 {}
36243 48616 {}
36243 48700 {}
36243 50848 {}
36243 55387 {}
36243 56780 {}
36243 61328 {}
39273 39275 {}
42799 42800 {}
48616 48618 {}
48700 48702 {}
50848 50850 {}
55387 55389 {}
56780 56782 {}
61328 61330 {}
36244 38886 {}
36244 42455 {}
36244 48765 {}
36244 48844 {}
36244 50476 {}
36244 55498 {}
36244 56452 {}
36244 61430 {}
38886 38892 {}
42455 42456 {}
48765 48767 {}
48844 48845 {}
50476 50480 {}
55498 55500 {}
56452 56456 {}
61430 61432 {}
36245 40616 {}
36245 44096 {}
36245 48925 {}
36245 49006 {}
36245 52196 {}
36245 55554 {}
36245 58122 {}
36245 61506 {}
40616 40618 {}
44096 44098 {}
48925 48927 {}
49006 49007 {}
52196 52198 {}
55554 55556 {}
58122 58124 {}
61506 61508 {}
36246 41209 {}
36246 44675 {}
36246 49115 {}
36246 49171 {}
36246 52767 {}
36246 55666 {}
36246 58714 {}
36246 61616 {}
41209 41210 {}
44675 44676 {}
49115 49117 {}
49171 49173 {}
52767 52768 {}
55666 55668 {}
58714 58716 {}
61616 61618 {}
36247 41162 {}
36247 44625 {}
36247 49266 {}
36247 49347 {}
36247 52714 {}
36247 55738 {}
36247 58649 {}
36247 61670 {}
41162 41163 {}
44625 44627 {}
49266 49267 {}
49347 49349 {}
52714 52715 {}
55738 55739 {}
58649 58651 {}
61670 61672 {}
36248 41082 {}
36248 44564 {}
36248 49427 {}
36248 49541 {}
36248 52678 {}
36248 55820 {}
36248 58610 {}
36248 61796 {}
41082 41089 {}
44564 44565 {}
49427 49429 {}
49541 49543 {}
52678 52679 {}
55820 55822 {}
58610 58611 {}
61796 61798 {}
36249 41025 {}
36249 44540 {}
36249 49595 {}
36249 49697 {}
36249 52605 {}
36249 55915 {}
36249 58527 {}
36249 61866 {}
41025 41027 {}
44540 44541 {}
49595 49597 {}
49697 49699 {}
52605 52607 {}
55915 55917 {}
58527 58529 {}
61866 61868 {}
36250 40977 {}
36250 44491 {}
36250 49795 {}
36250 49852 {}
36250 52554 {}
36250 56030 {}
36250 58471 {}
36250 61944 {}
40977 40979 {}
44491 44493 {}
49795 49797 {}
49852 49854 {}
52554 52555 {}
56030 56032 {}
58471 58489 {}
61944 61946 {}
36251 40874 {}
36251 44330 {}
36251 49966 {}
36251 50058 {}
36251 52440 {}
36251 56122 {}
36251 58355 {}
36251 62064 {}
40874 40876 {}
44330 44332 {}
49966 49968 {}
50058 50060 {}
52440 52442 {}
56122 56124 {}
58355 58362 {}
62064 62066 {}
36252 41268 {}
36252 44774 {}
36252 50117 {}
36252 50225 {}
36252 52885 {}
36252 56187 {}
36252 58774 {}
36252 62153 {}
41268 41270 {}
44774 44776 {}
50117 50119 {}
50225 50227 {}
52885 52886 {}
56187 56189 {}
58774 58776 {}
62153 62154 {}
36253 40442 {}
36253 42182 {}
36253 43959 {}
36253 45680 {}
36253 52022 {}
36253 53761 {}
36253 57937 {}
36253 59710 {}
40442 40443 {}
42182 42183 {}
43959 43961 {}
45680 45681 {}
52022 52023 {}
53761 53773 {}
57937 57939 {}
59710 59712 {}
36254 40391 {}
36254 42154 {}
36254 43909 {}
36254 45642 {}
36254 51988 {}
36254 53710 {}
36254 57923 {}
36254 59656 {}
40391 40393 {}
42154 42155 {}
43909 43911 {}
45642 45643 {}
51988 51989 {}
53710 53711 {}
57923 57925 {}
59656 59658 {}
36255 40353 {}
36255 42113 {}
36255 43823 {}
36255 45592 {}
36255 51916 {}
36255 53655 {}
36255 57848 {}
36255 59584 {}
40353 40355 {}
42113 42115 {}
43823 43825 {}
45592 45593 {}
51916 51917 {}
53655 53657 {}
57848 57849 {}
59584 59586 {}
36256 40296 {}
36256 42054 {}
36256 43777 {}
36256 45520 {}
36256 51897 {}
36256 53631 {}
36256 57823 {}
36256 59544 {}
40296 40297 {}
42054 42055 {}
43777 43805 {}
45520 45521 {}
51897 51899 {}
53631 53633 {}
57823 57825 {}
59544 59546 {}
36257 40253 {}
36257 42003 {}
36257 43723 {}
36257 45505 {}
36257 51837 {}
36257 53560 {}
36257 57773 {}
36257 59498 {}
40253 40255 {}
42003 42005 {}
43723 43725 {}
45505 45507 {}
51837 51839 {}
53560 53561 {}
57773 57775 {}
59498 59500 {}
36258 40214 {}
36258 41963 {}
36258 43687 {}
36258 45429 {}
36258 51765 {}
36258 53528 {}
36258 57701 {}
36258 59467 {}
40214 40215 {}
41963 41965 {}
43687 43689 {}
45429 45431 {}
51765 51767 {}
53528 53529 {}
57701 57703 {}
59467 59468 {}
36259 40161 {}
36259 41874 {}
36259 43656 {}
36259 45392 {}
36259 51712 {}
36259 53488 {}
36259 57634 {}
36259 59385 {}
40161 40162 {}
41874 41876 {}
43656 43658 {}
45392 45394 {}
51712 51740 {}
53488 53490 {}
57634 57636 {}
59385 59387 {}
36260 40100 {}
36260 40736 {}
36260 43592 {}
36260 44206 {}
36260 51689 {}
36260 52311 {}
36260 57602 {}
36260 58184 {}
40100 40101 {}
40736 40740 {}
43592 43594 {}
44206 44210 {}
51689 51691 {}
52311 52312 {}
57602 57603 {}
58184 58190 {}
36261 40025 {}
36261 42291 {}
36261 43521 {}
36261 45782 {}
36261 51600 {}
36261 53857 {}
36261 57553 {}
36261 59771 {}
40025 40026 {}
42291 42292 {}
43521 43523 {}
45782 45784 {}
51600 51602 {}
53857 53858 {}
57553 57554 {}
59771 59773 {}
36262 39997 {}
36262 43499 {}
36262 45867 {}
36262 45976 {}
36262 51581 {}
36262 53966 {}
36262 57508 {}
36262 59906 {}
39997 39999 {}
43499 43500 {}
45867 45869 {}
45976 45977 {}
51581 51583 {}
53966 53967 {}
57508 57509 {}
59906 59907 {}
36263 39944 {}
36263 43419 {}
36263 46087 {}
36263 46200 {}
36263 51528 {}
36263 54075 {}
36263 57444 {}
36263 59998 {}
39944 39946 {}
43419 43421 {}
46087 46089 {}
46200 46201 {}
51528 51530 {}
54075 54076 {}
57444 57446 {}
59998 60000 {}
36264 39857 {}
36264 43380 {}
36264 46344 {}
36264 46423 {}
36264 51460 {}
36264 54190 {}
36264 57385 {}
36264 60147 {}
39857 39859 {}
43380 43382 {}
46344 46345 {}
46423 46425 {}
51460 51461 {}
54190 54192 {}
57385 57387 {}
60147 60149 {}
36265 39840 {}
36265 43312 {}
36265 46553 {}
36265 46639 {}
36265 51411 {}
36265 54335 {}
36265 57311 {}
36265 60254 {}
39840 39842 {}
43312 43313 {}
46553 46555 {}
46639 46657 {}
51411 51412 {}
54335 54337 {}
57311 57312 {}
60254 60256 {}
36266 39759 {}
36266 43274 {}
36266 46746 {}
36266 46857 {}
36266 51355 {}
36266 54412 {}
36266 57269 {}
36266 60354 {}
39759 39760 {}
43274 43275 {}
46746 46748 {}
46857 46884 {}
51355 51357 {}
54412 54414 {}
57269 57271 {}
60354 60355 {}
36267 39705 {}
36267 43203 {}
36267 46969 {}
36267 47095 {}
36267 51286 {}
36267 54532 {}
36267 57217 {}
36267 60463 {}
39705 39733 {}
43203 43204 {}
46969 46970 {}
47095 47096 {}
51286 51288 {}
54532 54533 {}
57217 57218 {}
60463 60464 {}
36268 39661 {}
36268 43144 {}
36268 47215 {}
36268 47312 {}
36268 51221 {}
36268 54665 {}
36268 57152 {}
36268 60574 {}
39661 39662 {}
43144 43145 {}
47215 47216 {}
47312 47314 {}
51221 51223 {}
54665 54666 {}
57152 57153 {}
60574 60576 {}
36269 39606 {}
36269 43094 {}
36269 47396 {}
36269 47503 {}
36269 51203 {}
36269 54755 {}
36269 57120 {}
36269 60710 {}
39606 39608 {}
43094 43095 {}
47396 47398 {}
47503 47521 {}
51203 51205 {}
54755 54757 {}
57120 57121 {}
60710 60712 {}
36270 39546 {}
36270 43055 {}
36270 47632 {}
36270 47714 {}
36270 51131 {}
36270 54880 {}
36270 57078 {}
36270 60800 {}
39546 39547 {}
43055 43056 {}
47632 47634 {}
47714 47715 {}
51131 51132 {}
54880 54881 {}
57078 57080 {}
60800 60802 {}
36271 39488 {}
36271 43013 {}
36271 47853 {}
36271 47938 {}
36271 51067 {}
36271 54975 {}
36271 57021 {}
36271 60910 {}
39488 39490 {}
43013 43015 {}
47853 47854 {}
47938 47957 {}
51067 51069 {}
54975 54977 {}
57021 57023 {}
60910 60912 {}
36272 39438 {}
36272 42944 {}
36272 48069 {}
36272 48145 {}
36272 51040 {}
36272 55123 {}
36272 56935 {}
36272 61049 {}
39438 39439 {}
42944 42946 {}
48069 48071 {}
48145 48146 {}
51040 51042 {}
55123 55125 {}
56935 56936 {}
61049 61051 {}
36273 39380 {}
36273 42885 {}
36273 48273 {}
36273 48353 {}
36273 50955 {}
36273 55236 {}
36273 56881 {}
36273 61162 {}
39380 39382 {}
42885 42887 {}
48273 48274 {}
48353 48354 {}
50955 50957 {}
55236 55237 {}
56881 56883 {}
61162 61164 {}
36274 39358 {}
36274 42835 {}
36274 48414 {}
36274 48509 {}
36274 50911 {}
36274 55313 {}
36274 56833 {}
36274 61224 {}
39358 39360 {}
42835 42837 {}
48414 48416 {}
48509 48518 {}
50911 50913 {}
55313 55314 {}
56833 56835 {}
61224 61226 {}
36275 39269 {}
36275 42805 {}
36275 48590 {}
36275 48686 {}
36275 50877 {}
36275 55373 {}
36275 56806 {}
36275 61341 {}
39269 39271 {}
42805 42806 {}
48590 48592 {}
48686 48688 {}
50877 50878 {}
55373 55375 {}
56806 56808 {}
61341 61342 {}
36276 38932 {}
36276 42383 {}
36276 48751 {}
36276 48869 {}
36276 50469 {}
36276 55476 {}
36276 56434 {}
36276 61437 {}
38932 38936 {}
42383 42384 {}
48751 48753 {}
48869 48871 {}
50469 50470 {}
55476 55478 {}
56434 56438 {}
61437 61438 {}
36277 40626 {}
36277 44108 {}
36277 48954 {}
36277 49016 {}
36277 52170 {}
36277 55550 {}
36277 58096 {}
36277 61492 {}
40626 40628 {}
44108 44110 {}
48954 48955 {}
49016 49017 {}
52170 52172 {}
55550 55552 {}
58096 58098 {}
61492 61494 {}
36278 41182 {}
36278 44711 {}
36278 49122 {}
36278 49197 {}
36278 52763 {}
36278 55640 {}
36278 58688 {}
36278 61610 {}
41182 41184 {}
44711 44712 {}
49122 49123 {}
49197 49199 {}
52763 52764 {}
55640 55642 {}
58688 58690 {}
61610 61612 {}
36279 41129 {}
36279 44621 {}
36279 49291 {}
36279 49363 {}
36279 52709 {}
36279 55753 {}
36279 58640 {}
36279 61706 {}
41129 41131 {}
44621 44623 {}
49291 49293 {}
49363 49365 {}
52709 52711 {}
55753 55755 {}
58640 58641 {}
61706 61708 {}
36280 41075 {}
36280 44600 {}
36280 49434 {}
36280 49505 {}
36280 52651 {}
36280 55816 {}
36280 58578 {}
36280 61765 {}
41075 41103 {}
44600 44601 {}
49434 49453 {}
49505 49507 {}
52651 52653 {}
55816 55818 {}
58578 58579 {}
61765 61766 {}
36281 41057 {}
36281 44514 {}
36281 49601 {}
36281 49675 {}
36281 52601 {}
36281 55909 {}
36281 58532 {}
36281 61857 {}
41057 41059 {}
44514 44515 {}
49601 49603 {}
49675 49677 {}
52601 52603 {}
55909 55911 {}
58532 58533 {}
61857 61858 {}
36282 40968 {}
36282 44466 {}
36282 49781 {}
36282 49885 {}
36282 52566 {}
36282 56008 {}
36282 58473 {}
36282 61950 {}
40968 40969 {}
44466 44467 {}
49781 49783 {}
49885 49886 {}
52566 52567 {}
56008 56010 {}
58473 58501 {}
61950 61952 {}
36283 40861 {}
36283 44345 {}
36283 49940 {}
36283 50022 {}
36283 52455 {}
36283 56096 {}
36283 58348 {}
36283 62060 {}
40861 40862 {}
44345 44346 {}
49940 49942 {}
50022 50024 {}
52455 52456 {}
56096 56098 {}
58348 58376 {}
62060 62062 {}
36284 41283 {}
36284 44761 {}
36284 50149 {}
36284 50203 {}
36284 52852 {}
36284 56177 {}
36284 58775 {}
36284 62152 {}
41283 41284 {}
44761 44762 {}
50149 50151 {}
50203 50205 {}
52852 52854 {}
56177 56179 {}
58775 58776 {}
62152 62154 {}
36285 40464 {}
36285 42187 {}
36285 43923 {}
36285 45674 {}
36285 52038 {}
36285 53764 {}
36285 57960 {}
36285 59717 {}
40464 40465 {}
42187 42189 {}
43923 43925 {}
45674 45675 {}
52038 52039 {}
53764 53765 {}
57960 57961 {}
59717 59718 {}
36286 40417 {}
36286 42150 {}
36286 43883 {}
36286 45630 {}
36286 51965 {}
36286 53727 {}
36286 57919 {}
36286 59634 {}
40417 40419 {}
42150 42151 {}
43883 43885 {}
45630 45631 {}
51965 51967 {}
53727 53729 {}
57919 57921 {}
59634 59636 {}
36287 40342 {}
36287 42077 {}
36287 43859 {}
36287 45574 {}
36287 51943 {}
36287 53681 {}
36287 57847 {}
36287 59621 {}
40342 40343 {}
42077 42079 {}
43859 43861 {}
45574 45575 {}
51943 51945 {}
53681 53683 {}
57847 57849 {}
59621 59622 {}
36288 40281 {}
36288 42028 {}
36288 43783 {}
36288 45545 {}
36288 51888 {}
36288 53619 {}
36288 57814 {}
36288 59556 {}
40281 40283 {}
42028 42029 {}
43783 43789 {}
45545 45547 {}
51888 51889 {}
53619 53621 {}
57814 57815 {}
59556 59558 {}
36289 40231 {}
36289 42010 {}
36289 43728 {}
36289 45496 {}
36289 51811 {}
36289 53591 {}
36289 57751 {}
36289 59507 {}
40231 40233 {}
42010 42011 {}
43728 43729 {}
45496 45497 {}
51811 51813 {}
53591 53593 {}
57751 57753 {}
59507 59508 {}
36290 40207 {}
36290 41932 {}
36290 43674 {}
36290 45445 {}
36290 51775 {}
36290 53542 {}
36290 57720 {}
36290 59457 {}
40207 40209 {}
41932 41933 {}
43674 43675 {}
45445 45447 {}
51775 51777 {}
53542 53543 {}
57720 57721 {}
59457 59458 {}
36291 40154 {}
36291 41910 {}
36291 43647 {}
36291 45402 {}
36291 51720 {}
36291 53452 {}
36291 57638 {}
36291 59414 {}
40154 40156 {}
41910 41912 {}
43647 43648 {}
45402 45404 {}
51720 51726 {}
53452 53454 {}
57638 57640 {}
59414 59415 {}
36292 40096 {}
36292 40757 {}
36292 43597 {}
36292 44177 {}
36292 51667 {}
36292 52329 {}
36292 57601 {}
36292 58237 {}
40096 40097 {}
40757 40758 {}
43597 43598 {}
44177 44178 {}
51667 51669 {}
52329 52330 {}
57601 57603 {}
58237 58238 {}
36293 40042 {}
36293 42297 {}
36293 43550 {}
36293 45761 {}
36293 51636 {}
36293 53864 {}
36293 57559 {}
36293 59781 {}
40042 40044 {}
42297 42298 {}
43550 43551 {}
45761 45762 {}
51636 51638 {}
53864 53866 {}
57559 57560 {}
59781 59783 {}
36294 39988 {}
36294 43462 {}
36294 45893 {}
36294 46011 {}
36294 51545 {}
36294 53981 {}
36294 57475 {}
36294 59909 {}
39988 39989 {}
43462 43464 {}
45893 45895 {}
46011 46013 {}
51545 51547 {}
53981 53983 {}
57475 57477 {}
59909 59911 {}
36295 39934 {}
36295 43420 {}
36295 46091 {}
36295 46228 {}
36295 51519 {}
36295 54070 {}
36295 57445 {}
36295 60025 {}
39934 39936 {}
43420 43421 {}
46091 46093 {}
46228 46229 {}
51519 51520 {}
54070 54072 {}
57445 57446 {}
60025 60026 {}
36296 39862 {}
36296 43390 {}
36296 46321 {}
36296 46413 {}
36296 51437 {}
36296 54200 {}
36296 57363 {}
36296 60148 {}
39862 39863 {}
43390 43392 {}
46321 46323 {}
46413 46415 {}
51437 51439 {}
54200 54202 {}
57363 57365 {}
60148 60149 {}
36297 39809 {}
36297 43305 {}
36297 46550 {}
36297 46645 {}
36297 51417 {}
36297 54299 {}
36297 57347 {}
36297 60261 {}
39809 39810 {}
43305 43307 {}
46550 46551 {}
46645 46665 {}
51417 51418 {}
54299 54301 {}
57347 57348 {}
60261 60262 {}
36298 39790 {}
36298 43261 {}
36298 46782 {}
36298 46868 {}
36298 51352 {}
36298 54417 {}
36298 57281 {}
36298 60369 {}
39790 39792 {}
43261 43263 {}
46782 46784 {}
46868 46874 {}
51352 51353 {}
54417 54418 {}
57281 57283 {}
60369 60371 {}
36299 39703 {}
36299 43234 {}
36299 46986 {}
36299 47094 {}
36299 51302 {}
36299 54560 {}
36299 57206 {}
36299 60472 {}
39703 39717 {}
43234 43236 {}
46986 46988 {}
47094 47096 {}
51302 51304 {}
54560 54561 {}
57206 57208 {}
60472 60474 {}
36300 39646 {}
36300 43166 {}
36300 47205 {}
36300 47323 {}
36300 51247 {}
36300 54647 {}
36300 57180 {}
36300 60579 {}
39646 39648 {}
43166 43167 {}
47205 47206 {}
47323 47324 {}
51247 51249 {}
54647 54648 {}
57180 57181 {}
60579 60580 {}
36301 39596 {}
36301 43116 {}
36301 47406 {}
36301 47498 {}
36301 51208 {}
36301 54781 {}
36301 57112 {}
36301 60688 {}
39596 39598 {}
43116 43117 {}
47406 47408 {}
47498 47529 {}
51208 51209 {}
54781 54783 {}
57112 57113 {}
60688 60690 {}
36302 39577 {}
36302 43073 {}
36302 47606 {}
36302 47713 {}
36302 51116 {}
36302 54865 {}
36302 57042 {}
36302 60801 {}
39577 39579 {}
43073 43074 {}
47606 47608 {}
47713 47715 {}
51116 51118 {}
54865 54867 {}
57042 57044 {}
60801 60802 {}
36303 39524 {}
36303 43020 {}
36303 47820 {}
36303 47935 {}
36303 51100 {}
36303 54980 {}
36303 57004 {}
36303 60937 {}
39524 39526 {}
43020 43021 {}
47820 47822 {}
47935 47941 {}
51100 51101 {}
54980 54981 {}
57004 57005 {}
60937 60938 {}
36304 39466 {}
36304 42934 {}
36304 48047 {}
36304 48173 {}
36304 51012 {}
36304 55097 {}
36304 56970 {}
36304 61060 {}
39466 39467 {}
42934 42936 {}
48047 48049 {}
48173 48174 {}
51012 51014 {}
55097 55099 {}
56970 56972 {}
61060 61061 {}
36305 39406 {}
36305 42891 {}
36305 48287 {}
36305 48330 {}
36305 50970 {}
36305 55232 {}
36305 56882 {}
36305 61173 {}
39406 39408 {}
42891 42893 {}
48287 48288 {}
48330 48332 {}
50970 50971 {}
55232 55233 {}
56882 56883 {}
61173 61174 {}
36306 39333 {}
36306 42852 {}
36306 48415 {}
36306 48498 {}
36306 50920 {}
36306 55318 {}
36306 56850 {}
36306 61228 {}
39333 39334 {}
42852 42853 {}
48415 48416 {}
48498 48514 {}
50920 50921 {}
55318 55320 {}
56850 56851 {}
61228 61230 {}
36307 39295 {}
36307 42786 {}
36307 48580 {}
36307 48691 {}
36307 50870 {}
36307 55374 {}
36307 56792 {}
36307 61318 {}
39295 39297 {}
42786 42788 {}
48580 48582 {}
48691 48692 {}
50870 50872 {}
55374 55375 {}
56792 56794 {}
61318 61320 {}
36308 38950 {}
36308 42444 {}
36308 48752 {}
36308 48838 {}
36308 50518 {}
36308 55495 {}
36308 56455 {}
36308 61427 {}
38950 38954 {}
42444 42448 {}
48752 48753 {}
48838 48839 {}
50518 50522 {}
55495 55496 {}
56455 56456 {}
61427 61428 {}
36309 40595 {}
36309 44082 {}
36309 48947 {}
36309 49010 {}
36309 52206 {}
36309 55555 {}
36309 58132 {}
36309 61493 {}
40595 40596 {}
44082 44084 {}
48947 48949 {}
49010 49011 {}
52206 52208 {}
55555 55556 {}
58132 58134 {}
61493 61494 {}
36310 41187 {}
36310 44684 {}
36310 49112 {}
36310 49185 {}
36310 52799 {}
36310 55676 {}
36310 58711 {}
36310 61584 {}
41187 41188 {}
44684 44686 {}
49112 49113 {}
49185 49187 {}
52799 52800 {}
55676 55678 {}
58711 58712 {}
61584 61586 {}
36311 41133 {}
36311 44647 {}
36311 49282 {}
36311 49369 {}
36311 52746 {}
36311 55750 {}
36311 58646 {}
36311 61684 {}
41133 41135 {}
44647 44649 {}
49282 49283 {}
49369 49371 {}
52746 52747 {}
55750 55751 {}
58646 58647 {}
61684 61686 {}
36312 41073 {}
36312 44596 {}
36312 49439 {}
36312 49542 {}
36312 52684 {}
36312 55842 {}
36312 58613 {}
36312 61793 {}
41073 41087 {}
44596 44597 {}
49439 49443 {}
49542 49543 {}
52684 52685 {}
55842 55844 {}
58613 58615 {}
61793 61794 {}
36313 41031 {}
36313 44545 {}
36313 49627 {}
36313 49711 {}
36313 52616 {}
36313 55916 {}
36313 58537 {}
36313 61888 {}
41031 41033 {}
44545 44547 {}
49627 49629 {}
49711 49713 {}
52616 52617 {}
55916 55917 {}
58537 58539 {}
61888 61890 {}
36314 40974 {}
36314 44465 {}
36314 49786 {}
36314 49874 {}
36314 52580 {}
36314 56009 {}
36314 58481 {}
36314 61976 {}
40974 40975 {}
44465 44467 {}
49786 49787 {}
49874 49876 {}
52580 52581 {}
56009 56010 {}
58481 58487 {}
61976 61978 {}
36315 40838 {}
36315 44352 {}
36315 49976 {}
36315 50059 {}
36315 52422 {}
36315 56086 {}
36315 58346 {}
36315 62050 {}
40838 40840 {}
44352 44354 {}
49976 49978 {}
50059 50060 {}
52422 52424 {}
56086 56088 {}
58346 58360 {}
62050 62052 {}
36316 41273 {}
36316 44782 {}
36316 50140 {}
36316 50236 {}
36316 52858 {}
36316 56188 {}
36316 58779 {}
36316 62130 {}
41273 41274 {}
44782 44784 {}
50140 50141 {}
50236 50237 {}
52858 52860 {}
56188 56189 {}
58779 58780 {}
62130 62132 {}
36317 40457 {}
36317 42203 {}
36317 43938 {}
36317 45695 {}
36317 52047 {}
36317 53770 {}
36317 57942 {}
36317 59721 {}
40457 40459 {}
42203 42205 {}
43938 43939 {}
45695 45697 {}
52047 52049 {}
53770 53781 {}
57942 57943 {}
59721 59722 {}
36318 40396 {}
36318 42128 {}
36318 43910 {}
36318 45656 {}
36318 51976 {}
36318 53720 {}
36318 57910 {}
36318 59667 {}
40396 40397 {}
42128 42129 {}
43910 43911 {}
45656 45657 {}
51976 51977 {}
53720 53721 {}
57910 57911 {}
59667 59668 {}
36319 40346 {}
36319 42088 {}
36319 43856 {}
36319 45591 {}
36319 51922 {}
36319 53670 {}
36319 57860 {}
36319 59588 {}
40346 40347 {}
42088 42089 {}
43856 43857 {}
45591 45593 {}
51922 51923 {}
53670 53671 {}
57860 57861 {}
59588 59590 {}
36320 40308 {}
36320 42049 {}
36320 43785 {}
36320 45551 {}
36320 51898 {}
36320 53632 {}
36320 57824 {}
36320 59534 {}
40308 40309 {}
42049 42051 {}
43785 43807 {}
45551 45553 {}
51898 51899 {}
53632 53633 {}
57824 57825 {}
59534 59536 {}
36321 40264 {}
36321 42014 {}
36321 43755 {}
36321 45484 {}
36321 51816 {}
36321 53559 {}
36321 57770 {}
36321 59489 {}
40264 40265 {}
42014 42015 {}
43755 43757 {}
45484 45485 {}
51816 51817 {}
53559 53561 {}
57770 57771 {}
59489 59490 {}
36322 40192 {}
36322 41964 {}
36322 43678 {}
36322 45424 {}
36322 51794 {}
36322 53520 {}
36322 57687 {}
36322 59461 {}
40192 40193 {}
41964 41965 {}
43678 43679 {}
45424 45425 {}
51794 51795 {}
53520 53521 {}
57687 57689 {}
59461 59462 {}
36323 40151 {}
36323 41879 {}
36323 43652 {}
36323 45371 {}
36323 51722 {}
36323 53485 {}
36323 57649 {}
36323 59408 {}
40151 40152 {}
41879 41880 {}
43652 43654 {}
45371 45372 {}
51722 51742 {}
53485 53486 {}
57649 57650 {}
59408 59409 {}
36324 40074 {}
36324 40749 {}
36324 43580 {}
36324 44249 {}
36324 51657 {}
36324 52272 {}
36324 57616 {}
36324 58252 {}
40074 40075 {}
40749 40750 {}
43580 43582 {}
44249 44250 {}
51657 51659 {}
52272 52278 {}
57616 57617 {}
58252 58256 {}
36325 40020 {}
36325 42268 {}
36325 43522 {}
36325 45792 {}
36325 51605 {}
36325 53846 {}
36325 57530 {}
36325 59786 {}
40020 40022 {}
42268 42270 {}
43522 43523 {}
45792 45794 {}
51605 51606 {}
53846 53848 {}
57530 57532 {}
59786 59787 {}
36326 39992 {}
36326 43467 {}
36326 45890 {}
36326 46012 {}
36326 51571 {}
36326 53982 {}
36326 57472 {}
36326 59915 {}
39992 39993 {}
43467 43468 {}
45890 45891 {}
46012 46013 {}
51571 51573 {}
53982 53983 {}
57472 57473 {}
59915 59917 {}
36327 39917 {}
36327 43409 {}
36327 46102 {}
36327 46195 {}
36327 51524 {}
36327 54107 {}
36327 57451 {}
36327 60031 {}
39917 39918 {}
43409 43411 {}
46102 46103 {}
46195 46197 {}
51524 51526 {}
54107 54108 {}
57451 57452 {}
60031 60032 {}
36328 39890 {}
36328 43391 {}
36328 46307 {}
36328 46436 {}
36328 51452 {}
36328 54219 {}
36328 57374 {}
36328 60125 {}
39890 39891 {}
43391 43392 {}
46307 46309 {}
46436 46437 {}
51452 51453 {}
54219 54220 {}
57374 57375 {}
60125 60127 {}
36329 39826 {}
36329 43337 {}
36329 46559 {}
36329 46648 {}
36329 51388 {}
36329 54332 {}
36329 57333 {}
36329 60250 {}
39826 39828 {}
43337 43339 {}
46559 46561 {}
46648 46659 {}
51388 51390 {}
54332 54333 {}
57333 57334 {}
60250 60252 {}
36330 39791 {}
36330 43287 {}
36330 46751 {}
36330 46855 {}
36330 51362 {}
36330 54426 {}
36330 57291 {}
36330 60358 {}
39791 39792 {}
43287 43289 {}
46751 46752 {}
46855 46892 {}
51362 51363 {}
54426 54428 {}
57291 57293 {}
60358 60359 {}
36331 39713 {}
36331 43235 {}
36331 46990 {}
36331 47109 {}
36331 51281 {}
36331 54527 {}
36331 57213 {}
36331 60480 {}
39713 39735 {}
43235 43236 {}
46990 46992 {}
47109 47110 {}
51281 51282 {}
54527 54529 {}
57213 57214 {}
60480 60482 {}
36332 39651 {}
36332 43175 {}
36332 47193 {}
36332 47290 {}
36332 51222 {}
36332 54675 {}
36332 57158 {}
36332 60611 {}
39651 39652 {}
43175 43177 {}
47193 47194 {}
47290 47292 {}
51222 51223 {}
54675 54676 {}
57158 57159 {}
60611 60612 {}
36333 39623 {}
36333 43125 {}
36333 47432 {}
36333 47514 {}
36333 51193 {}
36333 54760 {}
36333 57129 {}
36333 60715 {}
39623 39624 {}
43125 43127 {}
47432 47434 {}
47514 47523 {}
51193 51195 {}
54760 54761 {}
57129 57131 {}
60715 60716 {}
36334 39578 {}
36334 43045 {}
36334 47629 {}
36334 47732 {}
36334 51117 {}
36334 54866 {}
36334 57075 {}
36334 60837 {}
39578 39579 {}
43045 43046 {}
47629 47630 {}
47732 47733 {}
51117 51118 {}
54866 54867 {}
57075 57076 {}
60837 60838 {}
36335 39493 {}
36335 43014 {}
36335 47827 {}
36335 47936 {}
36335 51089 {}
36335 54985 {}
36335 56993 {}
36335 60925 {}
39493 39494 {}
43014 43015 {}
47827 47828 {}
47936 47959 {}
51089 51091 {}
54985 54987 {}
56993 56995 {}
60925 60926 {}
36336 39444 {}
36336 42957 {}
36336 48038 {}
36336 48151 {}
36336 51034 {}
36336 55120 {}
36336 56945 {}
36336 61056 {}
39444 39445 {}
42957 42958 {}
48038 48039 {}
48151 48152 {}
51034 51036 {}
55120 55121 {}
56945 56946 {}
61056 61057 {}
36337 39385 {}
36337 42907 {}
36337 48265 {}
36337 48363 {}
36337 50988 {}
36337 55199 {}
36337 56918 {}
36337 61147 {}
39385 39386 {}
42907 42909 {}
48265 48266 {}
48363 48364 {}
50988 50989 {}
55199 55201 {}
56918 56919 {}
61147 61148 {}
36338 39359 {}
36338 42836 {}
36338 48441 {}
36338 48501 {}
36338 50902 {}
36338 55323 {}
36338 56834 {}
36338 61261 {}
39359 39360 {}
42836 42837 {}
48441 48442 {}
48501 48502 {}
50902 50903 {}
55323 55324 {}
56834 56835 {}
61261 61262 {}
36339 39302 {}
36339 42772 {}
36339 48585 {}
36339 48679 {}
36339 50880 {}
36339 55378 {}
36339 56781 {}
36339 61340 {}
39302 39303 {}
42772 42774 {}
48585 48586 {}
48679 48680 {}
50880 50882 {}
55378 55379 {}
56781 56782 {}
61340 61342 {}
36340 38935 {}
36340 42409 {}
36340 48756 {}
36340 48870 {}
36340 50529 {}
36340 55462 {}
36340 56415 {}
36340 61431 {}
38935 38936 {}
42409 42410 {}
48756 48757 {}
48870 48871 {}
50529 50530 {}
55462 55464 {}
56415 56416 {}
61431 61432 {}
36341 40590 {}
36341 44083 {}
36341 48944 {}
36341 49031 {}
36341 52185 {}
36341 55582 {}
36341 58101 {}
36341 61497 {}
40590 40592 {}
44083 44084 {}
48944 48945 {}
49031 49033 {}
52185 52186 {}
55582 55584 {}
58101 58102 {}
61497 61498 {}
36342 41214 {}
36342 44700 {}
36342 49100 {}
36342 49182 {}
36342 52766 {}
36342 55673 {}
36342 58725 {}
36342 61607 {}
41214 41216 {}
44700 44702 {}
49100 49101 {}
49182 49183 {}
52766 52768 {}
55673 55674 {}
58725 58726 {}
61607 61608 {}
36343 41151 {}
36343 44648 {}
36343 49292 {}
36343 49374 {}
36343 52745 {}
36343 55727 {}
36343 58667 {}
36343 61681 {}
41151 41153 {}
44648 44649 {}
49292 49293 {}
49374 49375 {}
52745 52747 {}
55727 55729 {}
58667 58669 {}
61681 61682 {}
36344 41083 {}
36344 44589 {}
36344 49432 {}
36344 49527 {}
36344 52665 {}
36344 55839 {}
36344 58614 {}
36344 61760 {}
41083 41105 {}
44589 44591 {}
49432 49461 {}
49527 49529 {}
52665 52667 {}
55839 55840 {}
58614 58615 {}
61760 61762 {}
36345 41022 {}
36345 44524 {}
36345 49628 {}
36345 49679 {}
36345 52634 {}
36345 55938 {}
36345 58553 {}
36345 61856 {}
41022 41023 {}
44524 44525 {}
49628 49629 {}
49679 49681 {}
52634 52635 {}
55938 55939 {}
58553 58555 {}
61856 61858 {}
36346 40995 {}
36346 44488 {}
36346 49774 {}
36346 49862 {}
36346 52557 {}
36346 55995 {}
36346 58483 {}
36346 61955 {}
40995 40997 {}
44488 44489 {}
49774 49775 {}
49862 49864 {}
52557 52559 {}
55995 55996 {}
58483 58503 {}
61955 61956 {}
36347 40871 {}
36347 44341 {}
36347 49945 {}
36347 50044 {}
36347 52419 {}
36347 56113 {}
36347 58356 {}
36347 62033 {}
40871 40872 {}
44341 44342 {}
49945 49946 {}
50044 50046 {}
52419 52420 {}
56113 56114 {}
58356 58378 {}
62033 62034 {}
36348 41279 {}
36348 44764 {}
36348 50139 {}
36348 50214 {}
36348 52881 {}
36348 56214 {}
36348 58806 {}
36348 62134 {}
41279 41280 {}
44764 44766 {}
50139 50141 {}
50214 50215 {}
52881 52882 {}
56214 56215 {}
58806 58808 {}
62134 62136 {}
36349 40458 {}
36349 42204 {}
36349 43934 {}
36349 45702 {}
36349 52048 {}
36349 53760 {}
36349 57974 {}
36349 59694 {}
40458 40459 {}
42204 42205 {}
43934 43935 {}
45702 45703 {}
52048 52049 {}
53760 53777 {}
57974 57975 {}
59694 59696 {}
36350 40414 {}
36350 42138 {}
36350 43906 {}
36350 45624 {}
36350 51962 {}
36350 53706 {}
36350 57924 {}
36350 59666 {}
40414 40415 {}
42138 42139 {}
43906 43907 {}
45624 45625 {}
51962 51963 {}
53706 53707 {}
57924 57925 {}
59666 59668 {}
36351 40332 {}
36351 42109 {}
36351 43837 {}
36351 45602 {}
36351 51911 {}
36351 53682 {}
36351 57870 {}
36351 59606 {}
40332 40333 {}
42109 42111 {}
43837 43839 {}
45602 45603 {}
51911 51913 {}
53682 53683 {}
57870 57871 {}
59606 59608 {}
36352 40286 {}
36352 42053 {}
36352 43786 {}
36352 45556 {}
36352 51871 {}
36352 53616 {}
36352 57797 {}
36352 59570 {}
40286 40287 {}
42053 42055 {}
43786 43811 {}
45556 45557 {}
51871 51873 {}
53616 53617 {}
57797 57799 {}
59570 59572 {}
36353 40242 {}
36353 41987 {}
36353 43727 {}
36353 45501 {}
36353 51834 {}
36353 53570 {}
36353 57748 {}
36353 59494 {}
40242 40243 {}
41987 41989 {}
43727 43729 {}
45501 45503 {}
51834 51835 {}
53570 53571 {}
57748 57749 {}
59494 59496 {}
36354 40208 {}
36354 41937 {}
36354 43709 {}
36354 45456 {}
36354 51776 {}
36354 53515 {}
36354 57698 {}
36354 59438 {}
40208 40209 {}
41937 41939 {}
43709 43711 {}
45456 45457 {}
51776 51777 {}
53515 53517 {}
57698 57699 {}
59438 59440 {}
36355 40139 {}
36355 41911 {}
36355 43643 {}
36355 45388 {}
36355 51714 {}
36355 53489 {}
36355 57671 {}
36355 59381 {}
40139 40140 {}
41911 41912 {}
43643 43644 {}
45388 45390 {}
51714 51738 {}
53489 53490 {}
57671 57672 {}
59381 59383 {}
36356 40084 {}
36356 40716 {}
36356 43584 {}
36356 44198 {}
36356 51668 {}
36356 52289 {}
36356 57589 {}
36356 58234 {}
40084 40085 {}
40716 40720 {}
43584 43586 {}
44198 44202 {}
51668 51669 {}
52289 52290 {}
57589 57591 {}
58234 58238 {}
36357 40031 {}
36357 42287 {}
36357 43527 {}
36357 45793 {}
36357 51604 {}
36357 53865 {}
36357 57549 {}
36357 59807 {}
40031 40032 {}
42287 42288 {}
43527 43529 {}
45793 45794 {}
51604 51606 {}
53865 53866 {}
57549 57550 {}
59807 59809 {}
36358 39998 {}
36358 43485 {}
36358 45904 {}
36358 46007 {}
36358 51577 {}
36358 53959 {}
36358 57481 {}
36358 59894 {}
39998 39999 {}
43485 43486 {}
45904 45905 {}
46007 46009 {}
51577 51579 {}
53959 53961 {}
57481 57483 {}
59894 59895 {}
36359 39939 {}
36359 43445 {}
36359 46124 {}
36359 46206 {}
36359 51515 {}
36359 54102 {}
36359 57440 {}
36359 60012 {}
39939 39940 {}
43445 43447 {}
46124 46125 {}
46206 46207 {}
51515 51516 {}
54102 54104 {}
57440 57442 {}
60012 60014 {}
36360 39894 {}
36360 43365 {}
36360 46318 {}
36360 46450 {}
36360 51470 {}
36360 54201 {}
36360 57399 {}
36360 60142 {}
39894 39895 {}
43365 43366 {}
46318 46319 {}
46450 46451 {}
51470 51471 {}
54201 54202 {}
57399 57401 {}
60142 60143 {}
36361 39837 {}
36361 43338 {}
36361 46532 {}
36361 46642 {}
36361 51407 {}
36361 54314 {}
36361 57342 {}
36361 60238 {}
39837 39838 {}
43338 43339 {}
46532 46533 {}
46642 46653 {}
51407 51408 {}
54314 54315 {}
57342 57344 {}
60238 60240 {}
36362 39758 {}
36362 43277 {}
36362 46783 {}
36362 46869 {}
36362 51339 {}
36362 54449 {}
36362 57255 {}
36362 60379 {}
39758 39760 {}
43277 43279 {}
46783 46784 {}
46869 46888 {}
51339 51341 {}
54449 54450 {}
57255 57257 {}
60379 60381 {}
36363 39714 {}
36363 43202 {}
36363 46997 {}
36363 47082 {}
36363 51313 {}
36363 54538 {}
36363 57234 {}
36363 60484 {}
39714 39739 {}
43202 43204 {}
46997 46998 {}
47082 47084 {}
51313 51314 {}
54538 54539 {}
57234 57236 {}
60484 60486 {}
36364 39669 {}
36364 43180 {}
36364 47186 {}
36364 47301 {}
36364 51258 {}
36364 54653 {}
36364 57184 {}
36364 60600 {}
39669 39670 {}
43180 43181 {}
47186 47188 {}
47301 47302 {}
51258 51259 {}
54653 54654 {}
57184 57185 {}
60600 60602 {}
36365 39629 {}
36365 43130 {}
36365 47419 {}
36365 47513 {}
36365 51207 {}
36365 54782 {}
36365 57108 {}
36365 60699 {}
39629 39630 {}
43130 43131 {}
47419 47420 {}
47513 47517 {}
51207 51209 {}
54782 54783 {}
57108 57109 {}
60699 60700 {}
36366 39545 {}
36366 43041 {}
36366 47610 {}
36366 47723 {}
36366 51121 {}
36366 54870 {}
36366 57057 {}
36366 60833 {}
39545 39547 {}
43041 43042 {}
47610 47612 {}
47723 47725 {}
51121 51122 {}
54870 54871 {}
57057 57058 {}
60833 60834 {}
36367 39525 {}
36367 42998 {}
36367 47842 {}
36367 47931 {}
36367 51096 {}
36367 54979 {}
36367 57026 {}
36367 60947 {}
39525 39526 {}
42998 42999 {}
47842 47844 {}
47931 47933 {}
51096 51097 {}
54979 54981 {}
57026 57027 {}
60947 60948 {}
36368 39470 {}
36368 42971 {}
36368 48044 {}
36368 48141 {}
36368 51013 {}
36368 55114 {}
36368 56966 {}
36368 61033 {}
39470 39471 {}
42971 42972 {}
48044 48045 {}
48141 48142 {}
51013 51014 {}
55114 55115 {}
56966 56968 {}
61033 61035 {}
36369 39407 {}
36369 42914 {}
36369 48260 {}
36369 48362 {}
36369 50992 {}
36369 55210 {}
36369 56914 {}
36369 61151 {}
39407 39408 {}
42914 42915 {}
48260 48262 {}
48362 48364 {}
50992 50993 {}
55210 55211 {}
56914 56915 {}
61151 61152 {}
36370 39344 {}
36370 42840 {}
36370 48436 {}
36370 48505 {}
36370 50908 {}
36370 55301 {}
36370 56838 {}
36370 61229 {}
39344 39346 {}
42840 42841 {}
48436 48438 {}
48505 48532 {}
50908 50909 {}
55301 55302 {}
56838 56839 {}
61229 61230 {}
36371 39296 {}
36371 42783 {}
36371 48603 {}
36371 48669 {}
36371 50855 {}
36371 55406 {}
36371 56774 {}
36371 61325 {}
39296 39297 {}
42783 42784 {}
48603 48604 {}
48669 48670 {}
50855 50856 {}
55406 55407 {}
56774 56776 {}
61325 61326 {}
36372 38891 {}
36372 42429 {}
36372 48787 {}
36372 48843 {}
36372 50479 {}
36372 55473 {}
36372 56427 {}
36372 61408 {}
38891 38892 {}
42429 42430 {}
48787 48789 {}
48843 48845 {}
50479 50480 {}
55473 55474 {}
56427 56428 {}
61408 61410 {}
36373 40601 {}
36373 44105 {}
36373 48932 {}
36373 49038 {}
36373 52175 {}
36373 55587 {}
36373 58133 {}
36373 61528 {}
40601 40602 {}
44105 44106 {}
48932 48933 {}
49038 49039 {}
52175 52176 {}
55587 55588 {}
58133 58134 {}
61528 61530 {}
36374 41186 {}
36374 44707 {}
36374 49093 {}
36374 49186 {}
36374 52784 {}
36374 55654 {}
36374 58692 {}
36374 61588 {}
41186 41188 {}
44707 44708 {}
49093 49095 {}
49186 49187 {}
52784 52786 {}
55654 55656 {}
58692 58694 {}
61588 61590 {}
36375 41139 {}
36375 44658 {}
36375 49265 {}
36375 49348 {}
36375 52713 {}
36375 55759 {}
36375 58671 {}
36375 61685 {}
41139 41141 {}
44658 44659 {}
49265 49267 {}
49348 49349 {}
52713 52715 {}
55759 55761 {}
58671 58673 {}
61685 61686 {}
36376 41084 {}
36376 44563 {}
36376 49438 {}
36376 49531 {}
36376 52666 {}
36376 55843 {}
36376 58609 {}
36376 61771 {}
41084 41109 {}
44563 44565 {}
49438 49457 {}
49531 49533 {}
52666 52667 {}
55843 55844 {}
58609 58611 {}
61771 61772 {}
36377 41054 {}
36377 44536 {}
36377 49624 {}
36377 49676 {}
36377 52638 {}
36377 55920 {}
36377 58531 {}
36377 61867 {}
41054 41055 {}
44536 44537 {}
49624 49625 {}
49676 49677 {}
52638 52639 {}
55920 55921 {}
58531 58533 {}
61867 61868 {}
36378 40999 {}
36378 44470 {}
36378 49764 {}
36378 49870 {}
36378 52553 {}
36378 56005 {}
36378 58484 {}
36378 61973 {}
40999 41001 {}
44470 44471 {}
49764 49765 {}
49870 49872 {}
52553 52555 {}
56005 56006 {}
58484 58507 {}
61973 61974 {}
36379 40870 {}
36379 44334 {}
36379 49977 {}
36379 50048 {}
36379 52428 {}
36379 56119 {}
36379 58357 {}
36379 62055 {}
40870 40872 {}
44334 44336 {}
49977 49978 {}
50048 50050 {}
52428 52430 {}
56119 56120 {}
58357 58382 {}
62055 62056 {}
36380 41272 {}
36380 44771 {}
36380 50150 {}
36380 50210 {}
36380 52853 {}
36380 56204 {}
36380 58785 {}
36380 62124 {}
41272 41274 {}
44771 44772 {}
50150 50151 {}
50210 50211 {}
52853 52854 {}
56204 56205 {}
58785 58786 {}
62124 62126 {}
36381 40436 {}
36381 42181 {}
36381 43949 {}
36381 45701 {}
36381 52034 {}
36381 53758 {}
36381 57951 {}
36381 59699 {}
40436 40437 {}
42181 42183 {}
43949 43951 {}
45701 45703 {}
52034 52035 {}
53758 53793 {}
57951 57953 {}
59699 59700 {}
36382 40413 {}
36382 42142 {}
36382 43878 {}
36382 45641 {}
36382 51994 {}
36382 53738 {}
36382 57902 {}
36382 59670 {}
40413 40415 {}
42142 42143 {}
43878 43879 {}
45641 45643 {}
51994 51995 {}
53738 53739 {}
57902 57903 {}
59670 59672 {}
36383 40364 {}
36383 42081 {}
36383 43846 {}
36383 45601 {}
36383 51926 {}
36383 53656 {}
36383 57838 {}
36383 59620 {}
40364 40365 {}
42081 42083 {}
43846 43847 {}
45601 45603 {}
51926 51927 {}
53656 53657 {}
57838 57839 {}
59620 59622 {}
36384 40307 {}
36384 42050 {}
36384 43781 {}
36384 45519 {}
36384 51866 {}
36384 53628 {}
36384 57792 {}
36384 59560 {}
40307 40309 {}
42050 42051 {}
43781 43791 {}
45519 45521 {}
51866 51867 {}
53628 53629 {}
57792 57793 {}
59560 59562 {}
36385 40257 {}
36385 41992 {}
36385 43760 {}
36385 45470 {}
36385 51848 {}
36385 53555 {}
36385 57763 {}
36385 59485 {}
40257 40259 {}
41992 41993 {}
43760 43761 {}
45470 45471 {}
51848 51849 {}
53555 53557 {}
57763 57765 {}
59485 59486 {}
36386 40218 {}
36386 41954 {}
36386 43677 {}
36386 45452 {}
36386 51762 {}
36386 53516 {}
36386 57697 {}
36386 59439 {}
40218 40219 {}
41954 41955 {}
43677 43679 {}
45452 45453 {}
51762 51763 {}
53516 53517 {}
57697 57699 {}
59439 59440 {}
36387 40165 {}
36387 41875 {}
36387 43621 {}
36387 45377 {}
36387 51725 {}
36387 53479 {}
36387 57635 {}
36387 59396 {}
40165 40166 {}
41875 41876 {}
43621 43622 {}
45377 45378 {}
51725 51728 {}
53479 53480 {}
57635 57636 {}
59396 59397 {}
36388 40088 {}
36388 40711 {}
36388 43581 {}
36388 44223 {}
36388 51686 {}
36388 52297 {}
36388 57583 {}
36388 58203 {}
40088 40089 {}
40711 40712 {}
43581 43582 {}
44223 44224 {}
51686 51687 {}
52297 52298 {}
57583 57585 {}
58203 58204 {}
36389 40030 {}
36389 42286 {}
36389 43532 {}
36389 45779 {}
36389 51626 {}
36389 53874 {}
36389 57548 {}
36389 59782 {}
40030 40032 {}
42286 42288 {}
43532 43533 {}
45779 45780 {}
51626 51628 {}
53874 53876 {}
57548 57550 {}
59782 59783 {}
36390 39991 {}
36390 43484 {}
36390 45881 {}
36390 45990 {}
36390 51578 {}
36390 53991 {}
36390 57476 {}
36390 59887 {}
39991 39993 {}
43484 43486 {}
45881 45883 {}
45990 45991 {}
51578 51579 {}
53991 53993 {}
57476 57477 {}
59887 59889 {}
36391 39935 {}
36391 43435 {}
36391 46088 {}
36391 46205 {}
36391 51493 {}
36391 54080 {}
36391 57432 {}
36391 60003 {}
39935 39936 {}
43435 43437 {}
46088 46089 {}
46205 46207 {}
51493 51494 {}
54080 54082 {}
57432 57434 {}
60003 60004 {}
36392 39884 {}
36392 43381 {}
36392 46317 {}
36392 46424 {}
36392 51451 {}
36392 54187 {}
36392 57389 {}
36392 60151 {}
39884 39885 {}
43381 43382 {}
46317 46319 {}
46424 46425 {}
51451 51453 {}
54187 54188 {}
57389 57391 {}
60151 60153 {}
36393 39836 {}
36393 43324 {}
36393 46528 {}
36393 46646 {}
36393 51406 {}
36393 54325 {}
36393 57325 {}
36393 60243 {}
39836 39838 {}
43324 43325 {}
46528 46529 {}
46646 46673 {}
51406 51408 {}
54325 54327 {}
57325 57326 {}
60243 60244 {}
36394 39754 {}
36394 43273 {}
36394 46747 {}
36394 46858 {}
36394 51361 {}
36394 54439 {}
36394 57277 {}
36394 60344 {}
39754 39756 {}
43273 43275 {}
46747 46748 {}
46858 46860 {}
51361 51363 {}
54439 54440 {}
57277 57279 {}
60344 60345 {}
36395 39704 {}
36395 43198 {}
36395 46996 {}
36395 47076 {}
36395 51309 {}
36395 54537 {}
36395 57225 {}
36395 60481 {}
39704 39719 {}
43198 43200 {}
46996 46998 {}
47076 47078 {}
51309 51310 {}
54537 54539 {}
57225 57226 {}
60481 60482 {}
36396 39672 {}
36396 43143 {}
36396 47218 {}
36396 47291 {}
36396 51235 {}
36396 54657 {}
36396 57148 {}
36396 60601 {}
39672 39674 {}
43143 43145 {}
47218 47220 {}
47291 47292 {}
51235 51237 {}
54657 54658 {}
57148 57149 {}
60601 60602 {}
36397 39619 {}
36397 43093 {}
36397 47407 {}
36397 47505 {}
36397 51185 {}
36397 54756 {}
36397 57101 {}
36397 60714 {}
39619 39620 {}
43093 43095 {}
47407 47408 {}
47505 47507 {}
51185 51187 {}
54756 54757 {}
57101 57103 {}
60714 60716 {}
36398 39541 {}
36398 43063 {}
36398 47617 {}
36398 47710 {}
36398 51142 {}
36398 54891 {}
36398 57068 {}
36398 60827 {}
39541 39543 {}
43063 43064 {}
47617 47618 {}
47710 47711 {}
51142 51144 {}
54891 54893 {}
57068 57070 {}
60827 60828 {}
36399 39489 {}
36399 43002 {}
36399 47816 {}
36399 47939 {}
36399 51077 {}
36399 55012 {}
36399 57003 {}
36399 60911 {}
39489 39490 {}
43002 43003 {}
47816 47818 {}
47939 47943 {}
51077 51079 {}
55012 55013 {}
57003 57005 {}
60911 60912 {}
36400 39434 {}
36400 42945 {}
36400 48059 {}
36400 48166 {}
36400 51045 {}
36400 55092 {}
36400 56949 {}
36400 61038 {}
39434 39435 {}
42945 42946 {}
48059 48061 {}
48166 48168 {}
51045 51046 {}
55092 55093 {}
56949 56950 {}
61038 61039 {}
36401 39381 {}
36401 42895 {}
36401 48261 {}
36401 48344 {}
36401 50969 {}
36401 55209 {}
36401 56904 {}
36401 61141 {}
39381 39382 {}
42895 42897 {}
48261 48262 {}
48344 48346 {}
50969 50971 {}
55209 55211 {}
56904 56905 {}
61141 61142 {}
36402 39326 {}
36402 42862 {}
36402 48437 {}
36402 48510 {}
36402 50901 {}
36402 55287 {}
36402 56860 {}
36402 61225 {}
39326 39328 {}
42862 42863 {}
48437 48438 {}
48510 48522 {}
50901 50903 {}
55287 55288 {}
56860 56861 {}
61225 61226 {}
36403 39292 {}
36403 42782 {}
36403 48591 {}
36403 48665 {}
36403 50881 {}
36403 55409 {}
36403 56803 {}
36403 61350 {}
39292 39293 {}
42782 42784 {}
48591 48592 {}
48665 48666 {}
50881 50882 {}
55409 55411 {}
56803 56804 {}
61350 61352 {}
36404 38903 {}
36404 42417 {}
36404 48773 {}
36404 48860 {}
36404 50450 {}
36404 55472 {}
36404 56391 {}
36404 61409 {}
38903 38904 {}
42417 42418 {}
48773 48775 {}
48860 48861 {}
50450 50458 {}
55472 55474 {}
56391 56392 {}
61409 61410 {}
36405 40600 {}
36405 44092 {}
36405 48958 {}
36405 49037 {}
36405 52171 {}
36405 55572 {}
36405 58097 {}
36405 61514 {}
40600 40602 {}
44092 44094 {}
48958 48959 {}
49037 49039 {}
52171 52172 {}
55572 55574 {}
58097 58098 {}
61514 61516 {}
36406 41219 {}
36406 44688 {}
36406 49125 {}
36406 49194 {}
36406 52798 {}
36406 55663 {}
36406 58702 {}
36406 61595 {}
41219 41220 {}
44688 44690 {}
49125 49127 {}
49194 49195 {}
52798 52800 {}
55663 55664 {}
58702 58704 {}
61595 61596 {}
36407 41152 {}
36407 44622 {}
36407 49260 {}
36407 49337 {}
36407 52732 {}
36407 55728 {}
36407 58635 {}
36407 61696 {}
41152 41153 {}
44622 44623 {}
49260 49261 {}
49337 49339 {}
52732 52733 {}
55728 55729 {}
58635 58637 {}
61696 61698 {}
36408 41074 {}
36408 44595 {}
36408 49428 {}
36408 49510 {}
36408 52688 {}
36408 55849 {}
36408 58592 {}
36408 61770 {}
41074 41089 {}
44595 44597 {}
49428 49429 {}
49510 49511 {}
52688 52689 {}
55849 55850 {}
58592 58593 {}
61770 61772 {}
36409 41026 {}
36409 44528 {}
36409 49623 {}
36409 49701 {}
36409 52615 {}
36409 55906 {}
36409 58564 {}
36409 61852 {}
41026 41027 {}
44528 44529 {}
49623 49625 {}
49701 49703 {}
52615 52617 {}
55906 55907 {}
58564 58565 {}
61852 61854 {}
36410 40963 {}
36410 44456 {}
36410 49760 {}
36410 49881 {}
36410 52579 {}
36410 56004 {}
36410 58486 {}
36410 61972 {}
40963 40965 {}
44456 44457 {}
49760 49761 {}
49881 49882 {}
52579 52581 {}
56004 56006 {}
58486 58489 {}
61972 61974 {}
36411 40852 {}
36411 44367 {}
36411 49941 {}
36411 50027 {}
36411 52423 {}
36411 56109 {}
36411 58347 {}
36411 62051 {}
40852 40854 {}
44367 44368 {}
49941 49942 {}
50027 50028 {}
52423 52424 {}
56109 56110 {}
58347 58362 {}
62051 62052 {}
36412 41305 {}
36412 44775 {}
36412 50113 {}
36412 50200 {}
36412 52863 {}
36412 56192 {}
36412 58796 {}
36412 62146 {}
41305 41306 {}
44775 44776 {}
50113 50115 {}
50200 50201 {}
52863 52864 {}
56192 56193 {}
58796 58798 {}
62146 62148 {}
36413 40432 {}
36413 42199 {}
36413 43928 {}
36413 45673 {}
36413 52033 {}
36413 53762 {}
36413 57938 {}
36413 59685 {}
40432 40433 {}
42199 42201 {}
43928 43929 {}
45673 45675 {}
52033 52035 {}
53762 53781 {}
57938 57939 {}
59685 59686 {}
36414 40407 {}
36414 42127 {}
36414 43874 {}
36414 45651 {}
36414 51998 {}
36414 53732 {}
36414 57887 {}
36414 59660 {}
40407 40409 {}
42127 42129 {}
43874 43875 {}
45651 45653 {}
51998 51999 {}
53732 53733 {}
57887 57889 {}
59660 59662 {}
36415 40358 {}
36415 42104 {}
36415 43838 {}
36415 45573 {}
36415 51915 {}
36415 53660 {}
36415 57869 {}
36415 59616 {}
40358 40359 {}
42104 42105 {}
43838 43839 {}
45573 45575 {}
51915 51917 {}
53660 53661 {}
57869 57871 {}
59616 59618 {}
36416 40282 {}
36416 42031 {}
36416 43778 {}
36416 45542 {}
36416 51887 {}
36416 53642 {}
36416 57813 {}
36416 59566 {}
40282 40283 {}
42031 42033 {}
43778 43807 {}
45542 45543 {}
51887 51889 {}
53642 53643 {}
57813 57815 {}
59566 59568 {}
36417 40235 {}
36417 41978 {}
36417 43746 {}
36417 45480 {}
36417 51838 {}
36417 53581 {}
36417 57742 {}
36417 59516 {}
40235 40237 {}
41978 41979 {}
43746 43747 {}
45480 45481 {}
51838 51839 {}
53581 53583 {}
57742 57743 {}
59516 59518 {}
36418 40204 {}
36418 41931 {}
36418 43710 {}
36418 45451 {}
36418 51761 {}
36418 53541 {}
36418 57719 {}
36418 59470 {}
40204 40205 {}
41931 41933 {}
43710 43711 {}
45451 45453 {}
51761 51763 {}
53541 53543 {}
57719 57721 {}
59470 59472 {}
36419 40164 {}
36419 41897 {}
36419 43635 {}
36419 45393 {}
36419 51713 {}
36419 53466 {}
36419 57657 {}
36419 59391 {}
40164 40166 {}
41897 41898 {}
43635 43636 {}
45393 45394 {}
51713 51742 {}
53466 53468 {}
57657 57658 {}
59391 59393 {}
36420 40073 {}
36420 40719 {}
36420 43606 {}
36420 44246 {}
36420 51658 {}
36420 52265 {}
36420 57606 {}
36420 58245 {}
40073 40075 {}
40719 40720 {}
43606 43608 {}
44246 44250 {}
51658 51659 {}
52265 52266 {}
57606 57607 {}
58245 58246 {}
36421 40052 {}
36421 42269 {}
36421 43518 {}
36421 45778 {}
36421 51615 {}
36421 53847 {}
36421 57531 {}
36421 59772 {}
40052 40054 {}
42269 42270 {}
43518 43519 {}
45778 45780 {}
51615 51616 {}
53847 53848 {}
57531 57532 {}
59772 59773 {}
36422 39980 {}
36422 43463 {}
36422 45868 {}
36422 45975 {}
36422 51572 {}
36422 53965 {}
36422 57471 {}
36422 59893 {}
39980 39981 {}
43463 43464 {}
45868 45869 {}
45975 45977 {}
51572 51573 {}
53965 53967 {}
57471 57473 {}
59893 59895 {}
36423 39938 {}
36423 43441 {}
36423 46110 {}
36423 46227 {}
36423 51507 {}
36423 54071 {}
36423 57441 {}
36423 60013 {}
39938 39940 {}
43441 43443 {}
46110 46111 {}
46227 46229 {}
51507 51508 {}
54071 54072 {}
57441 57442 {}
60013 60014 {}
36424 39871 {}
36424 43369 {}
36424 46339 {}
36424 46435 {}
36424 51447 {}
36424 54186 {}
36424 57400 {}
36424 60119 {}
39871 39873 {}
43369 43370 {}
46339 46341 {}
46435 46437 {}
51447 51449 {}
54186 54188 {}
57400 57401 {}
60119 60121 {}
36425 39808 {}
36425 43323 {}
36425 46542 {}
36425 46640 {}
36425 51389 {}
36425 54304 {}
36425 57320 {}
36425 60229 {}
39808 39810 {}
43323 43325 {}
46542 46543 {}
46640 46659 {}
51389 51390 {}
54304 54305 {}
57320 57322 {}
60229 60230 {}
36426 39780 {}
36426 43288 {}
36426 46769 {}
36426 46867 {}
36426 51340 {}
36426 54445 {}
36426 57278 {}
36426 60380 {}
39780 39782 {}
43288 43289 {}
46769 46770 {}
46867 46892 {}
51340 51341 {}
54445 54446 {}
57278 57279 {}
60380 60381 {}
36427 39706 {}
36427 43224 {}
36427 46968 {}
36427 47099 {}
36427 51308 {}
36427 54559 {}
36427 57224 {}
36427 60462 {}
39706 39735 {}
43224 43226 {}
46968 46970 {}
47099 47100 {}
51308 51310 {}
54559 54561 {}
57224 57226 {}
60462 60464 {}
36428 39673 {}
36428 43148 {}
36428 47209 {}
36428 47297 {}
36428 51244 {}
36428 54674 {}
36428 57157 {}
36428 60588 {}
39673 39674 {}
43148 43149 {}
47209 47210 {}
47297 47298 {}
51244 51245 {}
54674 54676 {}
57157 57159 {}
60588 60590 {}
36429 39601 {}
36429 43098 {}
36429 47397 {}
36429 47504 {}
36429 51194 {}
36429 54770 {}
36429 57107 {}
36429 60725 {}
39601 39602 {}
43098 43099 {}
47397 47398 {}
47504 47523 {}
51194 51195 {}
54770 54771 {}
57107 57109 {}
60725 60726 {}
36430 39567 {}
36430 43051 {}
36430 47633 {}
36430 47709 {}
36430 51143 {}
36430 54892 {}
36430 57047 {}
36430 60826 {}
39567 39569 {}
43051 43052 {}
47633 47634 {}
47709 47711 {}
51143 51144 {}
54892 54893 {}
57047 57048 {}
60826 60828 {}
36431 39503 {}
36431 42988 {}
36431 47817 {}
36431 47925 {}
36431 51085 {}
36431 54998 {}
36431 57025 {}
36431 60915 {}
39503 39504 {}
42988 42989 {}
47817 47818 {}
47925 47959 {}
51085 51087 {}
54998 54999 {}
57025 57027 {}
60915 60916 {}
36432 39443 {}
36432 42939 {}
36432 48066 {}
36432 48150 {}
36432 51035 {}
36432 55124 {}
36432 56934 {}
36432 61034 {}
39443 39445 {}
42939 42940 {}
48066 48067 {}
48150 48152 {}
51035 51036 {}
55124 55125 {}
56934 56936 {}
61034 61035 {}
36433 39395 {}
36433 42903 {}
36433 48286 {}
36433 48340 {}
36433 50965 {}
36433 55231 {}
36433 56885 {}
36433 61140 {}
39395 39396 {}
42903 42905 {}
48286 48288 {}
48340 48342 {}
50965 50967 {}
55231 55233 {}
56885 56887 {}
61140 61142 {}
36434 39354 {}
36434 42857 {}
36434 48451 {}
36434 48500 {}
36434 50897 {}
36434 55286 {}
36434 56855 {}
36434 61247 {}
39354 39356 {}
42857 42859 {}
48451 48452 {}
48500 48502 {}
50897 50899 {}
55286 55288 {}
56855 56857 {}
61247 61248 {}
36435 39270 {}
36435 42804 {}
36435 48602 {}
36435 48664 {}
36435 50867 {}
36435 55400 {}
36435 56797 {}
36435 61347 {}
39270 39271 {}
42804 42806 {}
48602 48604 {}
48664 48666 {}
50867 50868 {}
55400 55401 {}
56797 56798 {}
61347 61348 {}
36436 38915 {}
36436 42376 {}
36436 48788 {}
36436 48837 {}
36436 50511 {}
36436 55494 {}
36436 56388 {}
36436 61440 {}
38915 38916 {}
42376 42384 {}
48788 48789 {}
48837 48839 {}
50511 50512 {}
55494 55496 {}
56388 56392 {}
61440 61442 {}
36437 40622 {}
36437 44093 {}
36437 48957 {}
36437 49009 {}
36437 52193 {}
36437 55573 {}
36437 58119 {}
36437 61529 {}
40622 40624 {}
44093 44094 {}
48957 48959 {}
49009 49011 {}
52193 52194 {}
55573 55574 {}
58119 58120 {}
61529 61530 {}
36438 41205 {}
36438 44697 {}
36438 49126 {}
36438 49208 {}
36438 52794 {}
36438 55655 {}
36438 58693 {}
36438 61611 {}
41205 41206 {}
44697 44698 {}
49126 49127 {}
49208 49209 {}
52794 52796 {}
55655 55656 {}
58693 58694 {}
61611 61612 {}
36439 41134 {}
36439 44636 {}
36439 49281 {}
36439 49341 {}
36439 52736 {}
36439 55731 {}
36439 58657 {}
36439 61703 {}
41134 41135 {}
44636 44637 {}
49281 49283 {}
49341 49343 {}
52736 52737 {}
55731 55733 {}
58657 58659 {}
61703 61704 {}
36440 41076 {}
36440 44599 {}
36440 49424 {}
36440 49520 {}
36440 52652 {}
36440 55830 {}
36440 58577 {}
36440 61792 {}
41076 41105 {}
44599 44601 {}
49424 49461 {}
49520 49521 {}
52652 52653 {}
55830 55832 {}
58577 58579 {}
61792 61794 {}
36441 41058 {}
36441 44513 {}
36441 49617 {}
36441 49690 {}
36441 52611 {}
36441 55905 {}
36441 58563 {}
36441 61878 {}
41058 41059 {}
44513 44515 {}
49617 49619 {}
49690 49691 {}
52611 52613 {}
55905 55907 {}
58563 58565 {}
61878 61880 {}
36442 40996 {}
36442 44478 {}
36442 49759 {}
36442 49871 {}
36442 52569 {}
36442 56027 {}
36442 58474 {}
36442 61966 {}
40996 40997 {}
44478 44479 {}
49759 49761 {}
49871 49872 {}
52569 52571 {}
56027 56028 {}
58474 58503 {}
61966 61968 {}
36443 40848 {}
36443 44357 {}
36443 49955 {}
36443 50037 {}
36443 52418 {}
36443 56091 {}
36443 58349 {}
36443 62054 {}
40848 40850 {}
44357 44358 {}
49955 49956 {}
50037 50038 {}
52418 52420 {}
56091 56092 {}
58349 58378 {}
62054 62056 {}
36444 41295 {}
36444 44786 {}
36444 50127 {}
36444 50199 {}
36444 52875 {}
36444 56178 {}
36444 58784 {}
36444 62157 {}
41295 41296 {}
44786 44788 {}
50127 50129 {}
50199 50201 {}
52875 52876 {}
56178 56179 {}
58784 58786 {}
62157 62158 {}
36445 40467 {}
36445 42191 {}
36445 43956 {}
36445 45683 {}
36445 52025 {}
36445 53755 {}
36445 57970 {}
36445 59688 {}
40467 40469 {}
42191 42193 {}
43956 43957 {}
45683 45685 {}
52025 52027 {}
53755 53775 {}
57970 57971 {}
59688 59690 {}
36446 40404 {}
36446 42160 {}
36446 43896 {}
36446 45634 {}
36446 51961 {}
36446 53715 {}
36446 57888 {}
36446 59645 {}
40404 40405 {}
42160 42161 {}
43896 43897 {}
45634 45635 {}
51961 51963 {}
53715 53717 {}
57888 57889 {}
59645 59646 {}
36447 40341 {}
36447 42110 {}
36447 43824 {}
36447 45579 {}
36447 51937 {}
36447 53669 {}
36447 57842 {}
36447 59610 {}
40341 40343 {}
42110 42111 {}
43824 43825 {}
45579 45581 {}
51937 51939 {}
53669 53671 {}
57842 57843 {}
59610 59612 {}
36448 40314 {}
36448 42032 {}
36448 43774 {}
36448 45533 {}
36448 51893 {}
36448 53627 {}
36448 57788 {}
36448 59571 {}
40314 40315 {}
42032 42033 {}
43774 43803 {}
45533 45535 {}
51893 51895 {}
53627 53629 {}
57788 57789 {}
59571 59572 {}
36449 40267 {}
36449 42004 {}
36449 43734 {}
36449 45479 {}
36449 51833 {}
36449 53592 {}
36449 57741 {}
36449 59521 {}
40267 40269 {}
42004 42005 {}
43734 43735 {}
45479 45481 {}
51833 51835 {}
53592 53593 {}
57741 57743 {}
59521 59522 {}
36450 40217 {}
36450 41942 {}
36450 43700 {}
36450 45434 {}
36450 51793 {}
36450 53537 {}
36450 57691 {}
36450 59445 {}
40217 40219 {}
41942 41943 {}
43700 43701 {}
45434 45435 {}
51793 51795 {}
53537 53539 {}
57691 57693 {}
59445 59446 {}
36451 40150 {}
36451 41889 {}
36451 43631 {}
36451 45381 {}
36451 51709 {}
36451 53467 {}
36451 57648 {}
36451 59392 {}
40150 40152 {}
41889 41890 {}
43631 43632 {}
45381 45382 {}
51709 51738 {}
53467 53468 {}
57648 57650 {}
59392 59393 {}
36452 40106 {}
36452 40697 {}
36452 43570 {}
36452 44231 {}
36452 51680 {}
36452 52337 {}
36452 57594 {}
36452 58225 {}
40106 40107 {}
40697 40698 {}
43570 43572 {}
44231 44232 {}
51680 51681 {}
52337 52338 {}
57594 57595 {}
58225 58226 {}
36453 40056 {}
36453 42278 {}
36453 43554 {}
36453 45766 {}
36453 51627 {}
36453 53869 {}
36453 57540 {}
36453 59785 {}
40056 40058 {}
42278 42280 {}
43554 43555 {}
45766 45768 {}
51627 51628 {}
53869 53870 {}
57540 57542 {}
59785 59787 {}
36454 39970 {}
36454 43488 {}
36454 45900 {}
36454 45986 {}
36454 51550 {}
36454 53987 {}
36454 57497 {}
36454 59897 {}
39970 39971 {}
43488 43490 {}
45900 45901 {}
45986 45987 {}
51550 51551 {}
53987 53989 {}
57497 57499 {}
59897 59899 {}
36455 39916 {}
36455 43446 {}
36455 46120 {}
36455 46217 {}
36455 51503 {}
36455 54081 {}
36455 57433 {}
36455 60035 {}
39916 39918 {}
43446 43447 {}
46120 46121 {}
46217 46219 {}
51503 51504 {}
54081 54082 {}
57433 57434 {}
60035 60036 {}
36456 39872 {}
36456 43359 {}
36456 46311 {}
36456 46418 {}
36456 51459 {}
36456 54218 {}
36456 57390 {}
36456 60115 {}
39872 39873 {}
43359 43360 {}
46311 46313 {}
46418 46419 {}
51459 51461 {}
54218 54220 {}
57390 57391 {}
60115 60117 {}
36457 39814 {}
36457 43315 {}
36457 46538 {}
36457 46641 {}
36457 51398 {}
36457 54326 {}
36457 57332 {}
36457 60255 {}
39814 39816 {}
43315 43317 {}
46538 46539 {}
46641 46651 {}
51398 51400 {}
54326 54327 {}
57332 57334 {}
60255 60256 {}
36458 39781 {}
36458 43265 {}
36458 46761 {}
36458 46854 {}
36458 51330 {}
36458 54427 {}
36458 57288 {}
36458 60366 {}
39781 39782 {}
43265 43267 {}
46761 46762 {}
46854 46872 {}
51330 51331 {}
54427 54428 {}
57288 57289 {}
60366 60367 {}
36459 39702 {}
36459 43231 {}
36459 46978 {}
36459 47087 {}
36459 51291 {}
36459 54549 {}
36459 57228 {}
36459 60468 {}
39702 39731 {}
43231 43232 {}
46978 46980 {}
47087 47088 {}
51291 51292 {}
54549 54551 {}
57228 57230 {}
60468 60470 {}
36460 39647 {}
36460 43157 {}
36460 47219 {}
36460 47296 {}
36460 51236 {}
36460 54679 {}
36460 57173 {}
36460 60607 {}
39647 39648 {}
43157 43159 {}
47219 47220 {}
47296 47298 {}
51236 51237 {}
54679 54680 {}
57173 57175 {}
60607 60608 {}
36461 39607 {}
36461 43107 {}
36461 47411 {}
36461 47509 {}
36461 51175 {}
36461 54769 {}
36461 57111 {}
36461 60693 {}
39607 39608 {}
43107 43109 {}
47411 47412 {}
47509 47515 {}
51175 51177 {}
54769 54771 {}
57111 57113 {}
60693 60694 {}
36462 39568 {}
36462 43072 {}
36462 47621 {}
36462 47724 {}
36462 51153 {}
36462 54898 {}
36462 57046 {}
36462 60805 {}
39568 39569 {}
43072 43074 {}
47621 47622 {}
47724 47725 {}
51153 51154 {}
54898 54899 {}
57046 57048 {}
60805 60806 {}
36463 39511 {}
36463 43024 {}
36463 47821 {}
36463 47924 {}
36463 51099 {}
36463 55008 {}
36463 57011 {}
36463 60924 {}
39511 39512 {}
43024 43025 {}
47821 47822 {}
47924 47955 {}
51099 51101 {}
55008 55009 {}
57011 57013 {}
60924 60926 {}
36464 39459 {}
36464 42956 {}
36464 48037 {}
36464 48177 {}
36464 51030 {}
36464 55088 {}
36464 56961 {}
36464 61027 {}
39459 39461 {}
42956 42958 {}
48037 48039 {}
48177 48178 {}
51030 51032 {}
55088 55089 {}
56961 56962 {}
61027 61029 {}
36465 39394 {}
36465 42917 {}
36465 48282 {}
36465 48345 {}
36465 50978 {}
36465 55221 {}
36465 56908 {}
36465 61146 {}
39394 39396 {}
42917 42919 {}
48282 48284 {}
48345 48346 {}
50978 50979 {}
55221 55223 {}
56908 56909 {}
61146 61148 {}
36466 39337 {}
36466 42839 {}
36466 48450 {}
36466 48499 {}
36466 50898 {}
36466 55322 {}
36466 56837 {}
36466 61239 {}
39337 39338 {}
42839 42841 {}
48450 48452 {}
48499 48516 {}
50898 50899 {}
55322 55324 {}
56837 56839 {}
61239 61240 {}
36467 39284 {}
36467 42776 {}
36467 48613 {}
36467 48675 {}
36467 50866 {}
36467 55410 {}
36467 56784 {}
36467 61351 {}
39284 39285 {}
42776 42778 {}
48613 48614 {}
48675 48676 {}
50866 50868 {}
55410 55411 {}
56784 56786 {}
61351 61352 {}
36468 38898 {}
36468 42437 {}
36468 48778 {}
36468 48848 {}
36468 50491 {}
36468 55484 {}
36468 56405 {}
36468 61415 {}
38898 38904 {}
42437 42438 {}
48778 48779 {}
48848 48849 {}
50491 50492 {}
55484 55486 {}
56405 56406 {}
61415 61416 {}
36469 40594 {}
36469 44115 {}
36469 48943 {}
36469 49019 {}
36469 52184 {}
36469 55565 {}
36469 58111 {}
36469 61519 {}
40594 40596 {}
44115 44116 {}
48943 48945 {}
49019 49021 {}
52184 52186 {}
55565 55566 {}
58111 58112 {}
61519 61520 {}
36470 41193 {}
36470 44674 {}
36470 49116 {}
36470 49198 {}
36470 52788 {}
36470 55641 {}
36470 58689 {}
36470 61599 {}
41193 41194 {}
44674 44676 {}
49116 49117 {}
49198 49199 {}
52788 52790 {}
55641 55642 {}
58689 58690 {}
61599 61600 {}
36471 41144 {}
36471 44626 {}
36471 49287 {}
36471 49352 {}
36471 52731 {}
36471 55737 {}
36471 58668 {}
36471 61675 {}
41144 41145 {}
44626 44627 {}
49287 49289 {}
49352 49353 {}
52731 52733 {}
55737 55739 {}
58668 58669 {}
61675 61676 {}
36472 41072 {}
36472 44567 {}
36472 49423 {}
36472 49532 {}
36472 52662 {}
36472 55853 {}
36472 58588 {}
36472 61782 {}
41072 41101 {}
44567 44569 {}
49423 49441 {}
49532 49533 {}
52662 52663 {}
55853 55854 {}
58588 58589 {}
61782 61784 {}
36473 41044 {}
36473 44546 {}
36473 49606 {}
36473 49680 {}
36473 52624 {}
36473 55937 {}
36473 58541 {}
36473 61889 {}
41044 41045 {}
44546 44547 {}
49606 49607 {}
49680 49681 {}
52624 52625 {}
55937 55939 {}
58541 58543 {}
61889 61890 {}
36474 40985 {}
36474 44487 {}
36474 49770 {}
36474 49880 {}
36474 52576 {}
36474 56016 {}
36474 58470 {}
36474 61963 {}
40985 40987 {}
44487 44489 {}
49770 49771 {}
49880 49882 {}
52576 52577 {}
56016 56018 {}
58470 58499 {}
61963 61964 {}
36475 40853 {}
36475 44356 {}
36475 49963 {}
36475 50045 {}
36475 52444 {}
36475 56108 {}
36475 58345 {}
36475 62032 {}
40853 40854 {}
44356 44358 {}
49963 49964 {}
50045 50046 {}
52444 52446 {}
56108 56110 {}
58345 58374 {}
62032 62034 {}
36476 41294 {}
36476 44793 {}
36476 50145 {}
36476 50232 {}
36476 52871 {}
36476 56213 {}
36476 58788 {}
36476 62156 {}
41294 41296 {}
44793 44794 {}
50145 50147 {}
50232 50233 {}
52871 52872 {}
56213 56215 {}
58788 58790 {}
62156 62158 {}
36477 40441 {}
36477 42213 {}
36477 43924 {}
36477 45705 {}
36477 52043 {}
36477 53771 {}
36477 57964 {}
36477 59720 {}
40441 40443 {}
42213 42215 {}
43924 43925 {}
45705 45707 {}
52043 52045 {}
53771 53787 {}
57964 57965 {}
59720 59722 {}
36478 40395 {}
36478 42149 {}
36478 43873 {}
36478 45655 {}
36478 51997 {}
36478 53741 {}
36478 57909 {}
36478 59635 {}
40395 40397 {}
42149 42151 {}
43873 43875 {}
45655 45657 {}
51997 51999 {}
53741 53743 {}
57909 57911 {}
59635 59636 {}
36479 40367 {}
36479 42078 {}
36479 43850 {}
36479 45583 {}
36479 51921 {}
36479 53678 {}
36479 57837 {}
36479 59598 {}
40367 40369 {}
42078 42079 {}
43850 43851 {}
45583 45585 {}
51921 51923 {}
53678 53679 {}
57837 57839 {}
59598 59600 {}
36480 40295 {}
36480 42037 {}
36480 43787 {}
36480 45555 {}
36480 51883 {}
36480 53606 {}
36480 57809 {}
36480 59567 {}
40295 40297 {}
42037 42039 {}
43787 43795 {}
45555 45557 {}
51883 51885 {}
53606 53607 {}
57809 57811 {}
59567 59568 {}
36481 40232 {}
36481 42013 {}
36481 43737 {}
36481 45469 {}
36481 51812 {}
36481 53565 {}
36481 57738 {}
36481 59488 {}
40232 40233 {}
42013 42015 {}
43737 43739 {}
45469 45471 {}
51812 51813 {}
53565 53567 {}
57738 57739 {}
59488 59490 {}
36482 40191 {}
36482 41949 {}
36482 43696 {}
36482 45423 {}
36482 51787 {}
36482 53527 {}
36482 57713 {}
36482 59444 {}
40191 40193 {}
41949 41951 {}
43696 43697 {}
45423 45425 {}
51787 51789 {}
53527 53529 {}
57713 57715 {}
59444 59446 {}
36483 40138 {}
36483 41901 {}
36483 43620 {}
36483 45367 {}
36483 51716 {}
36483 53463 {}
36483 57670 {}
36483 59386 {}
40138 40140 {}
41901 41902 {}
43620 43622 {}
45367 45368 {}
51716 51718 {}
53463 53464 {}
57670 57672 {}
59386 59387 {}
36484 40095 {}
36484 40692 {}
36484 43602 {}
36484 44241 {}
36484 51654 {}
36484 52308 {}
36484 57615 {}
36484 58222 {}
40095 40097 {}
40692 40698 {}
43602 43604 {}
44241 44242 {}
51654 51655 {}
52308 52312 {}
57615 57617 {}
58222 58226 {}
36485 40034 {}
36485 42300 {}
36485 43543 {}
36485 45770 {}
36485 51614 {}
36485 53842 {}
36485 57562 {}
36485 59793 {}
40034 40036 {}
42300 42302 {}
43543 43545 {}
45770 45772 {}
51614 51616 {}
53842 53844 {}
57562 57564 {}
59793 59795 {}
36486 39965 {}
36486 43472 {}
36486 45903 {}
36486 45985 {}
36486 51546 {}
36486 53969 {}
36486 57503 {}
36486 59919 {}
39965 39967 {}
43472 43474 {}
45903 45905 {}
45985 45987 {}
51546 51547 {}
53969 53971 {}
57503 57505 {}
59919 59921 {}
36487 39926 {}
36487 43442 {}
36487 46123 {}
36487 46221 {}
36487 51492 {}
36487 54106 {}
36487 57423 {}
36487 60021 {}
39926 39928 {}
43442 43443 {}
46123 46125 {}
46221 46223 {}
51492 51494 {}
54106 54108 {}
57423 57424 {}
60021 60022 {}
36488 39868 {}
36488 43355 {}
36488 46333 {}
36488 46414 {}
36488 51441 {}
36488 54212 {}
36488 57364 {}
36488 60138 {}
39868 39869 {}
43355 43356 {}
46333 46335 {}
46414 46415 {}
51441 51443 {}
54212 54214 {}
57364 57365 {}
60138 60139 {}
36489 39818 {}
36489 43333 {}
36489 46527 {}
36489 46643 {}
36489 51420 {}
36489 54300 {}
36489 57314 {}
36489 60232 {}
39818 39820 {}
43333 43335 {}
46527 46529 {}
46643 46667 {}
51420 51422 {}
54300 54301 {}
57314 57316 {}
60232 60234 {}
36490 39764 {}
36490 43255 {}
36490 46773 {}
36490 46870 {}
36490 51329 {}
36490 54423 {}
36490 57282 {}
36490 60353 {}
39764 39766 {}
43255 43257 {}
46773 46774 {}
46870 46878 {}
51329 51331 {}
54423 54424 {}
57282 57283 {}
60353 60355 {}
36491 39709 {}
36491 43208 {}
36491 47000 {}
36491 47108 {}
36491 51280 {}
36491 54553 {}
36491 57202 {}
36491 60494 {}
39709 39723 {}
43208 43210 {}
47000 47002 {}
47108 47110 {}
51280 51282 {}
54553 54555 {}
57202 57204 {}
60494 60496 {}
36492 39660 {}
36492 43170 {}
36492 47192 {}
36492 47300 {}
36492 51257 {}
36492 54646 {}
36492 57161 {}
36492 60585 {}
39660 39662 {}
43170 43171 {}
47192 47194 {}
47300 47302 {}
51257 51259 {}
54646 54648 {}
57161 57163 {}
60585 60586 {}
36493 39597 {}
36493 43120 {}
36493 47418 {}
36493 47512 {}
36493 51181 {}
36493 54778 {}
36493 57133 {}
36493 60689 {}
39597 39598 {}
43120 43121 {}
47418 47420 {}
47512 47531 {}
51181 51183 {}
54778 54779 {}
57133 57135 {}
60689 60690 {}
36494 39551 {}
36494 43054 {}
36494 47611 {}
36494 47745 {}
36494 51130 {}
36494 54879 {}
36494 57043 {}
36494 60836 {}
39551 39553 {}
43054 43056 {}
47611 47612 {}
47745 47747 {}
51130 51132 {}
54879 54881 {}
57043 57044 {}
60836 60838 {}
36495 39515 {}
36495 42991 {}
36495 47848 {}
36495 47929 {}
36495 51095 {}
36495 54989 {}
36495 56999 {}
36495 60933 {}
39515 39516 {}
42991 42993 {}
47848 47850 {}
47929 47947 {}
51095 51097 {}
54989 54991 {}
56999 57001 {}
60933 60934 {}
36496 39447 {}
36496 42935 {}
36496 48034 {}
36496 48155 {}
36496 51022 {}
36496 55087 {}
36496 56944 {}
36496 61037 {}
39447 39449 {}
42935 42936 {}
48034 48035 {}
48155 48156 {}
51022 51024 {}
55087 55089 {}
56944 56946 {}
61037 61039 {}
36497 39403 {}
36497 42913 {}
36497 48272 {}
36497 48334 {}
36497 50981 {}
36497 55203 {}
36497 56907 {}
36497 61150 {}
39403 39404 {}
42913 42915 {}
48272 48274 {}
48334 48336 {}
50981 50983 {}
55203 55205 {}
56907 56909 {}
61150 61152 {}
36498 39348 {}
36498 42847 {}
36498 48440 {}
36498 48507 {}
36498 50929 {}
36498 55290 {}
36498 56845 {}
36498 61260 {}
39348 39350 {}
42847 42849 {}
48440 48442 {}
48507 48520 {}
50929 50931 {}
55290 55292 {}
56845 56847 {}
61260 61262 {}
36499 39305 {}
36499 42798 {}
36499 48581 {}
36499 48678 {}
36499 50854 {}
36499 55377 {}
36499 56770 {}
36499 61319 {}
39305 39307 {}
42798 42800 {}
48581 48582 {}
48678 48680 {}
50854 50856 {}
55377 55379 {}
56770 56772 {}
61319 61320 {}
36500 38881 {}
36500 42404 {}
36500 48777 {}
36500 48855 {}
36500 50526 {}
36500 55488 {}
36500 56412 {}
36500 61414 {}
38881 38882 {}
42404 42410 {}
48777 48779 {}
48855 48857 {}
50526 50530 {}
55488 55490 {}
56412 56416 {}
61414 61416 {}
36501 40604 {}
36501 44118 {}
36501 48931 {}
36501 49041 {}
36501 52197 {}
36501 55564 {}
36501 58123 {}
36501 61518 {}
40604 40606 {}
44118 44120 {}
48931 48933 {}
49041 49043 {}
52197 52198 {}
55564 55566 {}
58123 58124 {}
61518 61520 {}
36502 41196 {}
36502 44678 {}
36502 49099 {}
36502 49172 {}
36502 52776 {}
36502 55667 {}
36502 58715 {}
36502 61589 {}
41196 41198 {}
44678 44680 {}
49099 49101 {}
49172 49173 {}
52776 52778 {}
55667 55668 {}
58715 58716 {}
61589 61590 {}
36503 41143 {}
36503 44644 {}
36503 49277 {}
36503 49360 {}
36503 52723 {}
36503 55749 {}
36503 58661 {}
36503 61671 {}
41143 41145 {}
44644 44645 {}
49277 49279 {}
49360 49361 {}
52723 52725 {}
55749 55751 {}
58661 58663 {}
61671 61672 {}
36504 41079 {}
36504 44577 {}
36504 49437 {}
36504 49519 {}
36504 52655 {}
36504 55852 {}
36504 58587 {}
36504 61786 {}
41079 41093 {}
44577 44579 {}
49437 49447 {}
49519 49521 {}
52655 52657 {}
55852 55854 {}
58587 58589 {}
61786 61788 {}
36505 41021 {}
36505 44523 {}
36505 49605 {}
36505 49689 {}
36505 52627 {}
36505 55931 {}
36505 58554 {}
36505 61862 {}
41021 41023 {}
44523 44525 {}
49605 49607 {}
49689 49691 {}
52627 52629 {}
55931 55933 {}
58554 58555 {}
61862 61864 {}
36506 40989 {}
36506 44455 {}
36506 49773 {}
36506 49858 {}
36506 52565 {}
36506 55998 {}
36506 58477 {}
36506 61954 {}
40989 40991 {}
44455 44457 {}
49773 49775 {}
49858 49860 {}
52565 52567 {}
55998 56000 {}
58477 58479 {}
61954 61956 {}
36507 40842 {}
36507 44366 {}
36507 49967 {}
36507 50036 {}
36507 52450 {}
36507 56087 {}
36507 58352 {}
36507 62042 {}
40842 40844 {}
44366 44368 {}
49967 49968 {}
50036 50038 {}
52450 52452 {}
56087 56088 {}
58352 58366 {}
62042 62044 {}
36508 41304 {}
36508 44760 {}
36508 50135 {}
36508 50213 {}
36508 52874 {}
36508 56209 {}
36508 58810 {}
36508 62142 {}
41304 41306 {}
44760 44762 {}
50135 50137 {}
50213 50215 {}
52874 52876 {}
56209 56211 {}
58810 58812 {}
62142 62144 {}
36509 40453 {}
36509 42214 {}
36509 43950 {}
36509 45679 {}
36509 52021 {}
36509 53767 {}
36509 57941 {}
36509 59707 {}
40453 40455 {}
42214 42215 {}
43950 43951 {}
45679 45681 {}
52021 52023 {}
53767 53787 {}
57941 57943 {}
59707 59708 {}
36510 40382 {}
36510 42163 {}
36510 43900 {}
36510 45619 {}
36510 51975 {}
36510 53719 {}
36510 57897 {}
36510 59671 {}
40382 40383 {}
42163 42165 {}
43900 43901 {}
45619 45621 {}
51975 51977 {}
53719 53721 {}
57897 57899 {}
59671 59672 {}
36511 40345 {}
36511 42082 {}
36511 43860 {}
36511 45584 {}
36511 51947 {}
36511 53692 {}
36511 57852 {}
36511 59607 {}
40345 40347 {}
42082 42083 {}
43860 43861 {}
45584 45585 {}
51947 51949 {}
53692 53693 {}
57852 57853 {}
59607 59608 {}
36512 40304 {}
36512 42059 {}
36512 43782 {}
36512 45546 {}
36512 51861 {}
36512 53620 {}
36512 57801 {}
36512 59561 {}
40304 40305 {}
42059 42061 {}
43782 43795 {}
45546 45547 {}
51861 51863 {}
53620 53621 {}
57801 57803 {}
59561 59562 {}
36513 40263 {}
36513 42000 {}
36513 43724 {}
36513 45492 {}
36513 51822 {}
36513 53588 {}
36513 57752 {}
36513 59484 {}
40263 40265 {}
42000 42001 {}
43724 43725 {}
45492 45493 {}
51822 51823 {}
53588 53589 {}
57752 57753 {}
59484 59486 {}
36514 40195 {}
36514 41928 {}
36514 43706 {}
36514 45419 {}
36514 51783 {}
36514 53509 {}
36514 57709 {}
36514 59448 {}
40195 40197 {}
41928 41929 {}
43706 43707 {}
45419 45421 {}
51783 51785 {}
53509 53511 {}
57709 57711 {}
59448 59450 {}
36515 40155 {}
36515 41907 {}
36515 43653 {}
36515 45376 {}
36515 51717 {}
36515 53478 {}
36515 57639 {}
36515 59382 {}
40155 40156 {}
41907 41908 {}
43653 43654 {}
45376 45378 {}
51717 51718 {}
53478 53480 {}
57639 57640 {}
59382 59383 {}
36516 40109 {}
36516 40731 {}
36516 43585 {}
36516 44186 {}
36516 51679 {}
36516 52319 {}
36516 57580 {}
36516 58189 {}
40109 40111 {}
40731 40732 {}
43585 43586 {}
44186 44190 {}
51679 51681 {}
52319 52320 {}
57580 57581 {}
58189 58190 {}
36517 40035 {}
36517 42290 {}
36517 43553 {}
36517 45771 {}
36517 51601 {}
36517 53853 {}
36517 57552 {}
36517 59794 {}
40035 40036 {}
42290 42292 {}
43553 43555 {}
45771 45772 {}
51601 51602 {}
53853 53854 {}
57552 57554 {}
59794 59795 {}
36518 39969 {}
36518 43466 {}
36518 45894 {}
36518 45980 {}
36518 51556 {}
36518 53970 {}
36518 57504 {}
36518 59905 {}
39969 39971 {}
43466 43468 {}
45894 45895 {}
45980 45981 {}
51556 51557 {}
53970 53971 {}
57504 57505 {}
59905 59907 {}
36519 39927 {}
36519 43436 {}
36519 46092 {}
36519 46222 {}
36519 51525 {}
36519 54103 {}
36519 57419 {}
36519 60020 {}
39927 39928 {}
43436 43437 {}
46092 46093 {}
46222 46223 {}
51525 51526 {}
54103 54104 {}
57419 57420 {}
60020 60022 {}
36520 39883 {}
36520 43376 {}
36520 46329 {}
36520 46440 {}
36520 51469 {}
36520 54208 {}
36520 57386 {}
36520 60120 {}
39883 39885 {}
43376 43378 {}
46329 46331 {}
46440 46441 {}
51469 51471 {}
54208 54210 {}
57386 57387 {}
60120 60121 {}
36521 39819 {}
36521 43311 {}
36521 46560 {}
36521 46649 {}
36521 51410 {}
36521 54310 {}
36521 57343 {}
36521 60251 {}
39819 39820 {}
43311 43313 {}
46560 46561 {}
46649 46667 {}
51410 51412 {}
54310 54311 {}
57343 57344 {}
60251 60252 {}
36522 39769 {}
36522 43256 {}
36522 46779 {}
36522 46865 {}
36522 51334 {}
36522 54438 {}
36522 57287 {}
36522 60365 {}
39769 39770 {}
43256 43257 {}
46779 46780 {}
46865 46878 {}
51334 51335 {}
54438 54440 {}
57287 57289 {}
60365 60367 {}
36523 39715 {}
36523 43213 {}
36523 46974 {}
36523 47073 {}
36523 51276 {}
36523 54554 {}
36523 57239 {}
36523 60495 {}
39715 39723 {}
43213 43214 {}
46974 46976 {}
47073 47074 {}
51276 51278 {}
54554 54555 {}
57239 57240 {}
60495 60496 {}
36524 39683 {}
36524 43147 {}
36524 47196 {}
36524 47309 {}
36524 51248 {}
36524 54669 {}
36524 57151 {}
36524 60589 {}
39683 39684 {}
43147 43149 {}
47196 47198 {}
47309 47310 {}
51248 51249 {}
54669 54670 {}
57151 57153 {}
60589 60590 {}
36525 39633 {}
36525 43097 {}
36525 47433 {}
36525 47502 {}
36525 51182 {}
36525 54792 {}
36525 57119 {}
36525 60724 {}
39633 39634 {}
43097 43099 {}
47433 47434 {}
47502 47531 {}
51182 51183 {}
54792 54793 {}
57119 57121 {}
60724 60726 {}
36526 39556 {}
36526 43062 {}
36526 47616 {}
36526 47720 {}
36526 51139 {}
36526 54888 {}
36526 57053 {}
36526 60804 {}
39556 39557 {}
43062 43064 {}
47616 47618 {}
47720 47721 {}
51139 51140 {}
54888 54889 {}
57053 57054 {}
60804 60806 {}
36527 39521 {}
36527 43023 {}
36527 47849 {}
36527 47927 {}
36527 51064 {}
36527 55007 {}
36527 57000 {}
36527 60932 {}
39521 39522 {}
43023 43025 {}
47849 47850 {}
47927 47947 {}
51064 51065 {}
55007 55009 {}
57000 57001 {}
60932 60934 {}
36528 39437 {}
36528 42967 {}
36528 48048 {}
36528 48144 {}
36528 51023 {}
36528 55110 {}
36528 56960 {}
36528 61046 {}
39437 39439 {}
42967 42968 {}
48048 48049 {}
48144 48146 {}
51023 51024 {}
55110 55111 {}
56960 56962 {}
61046 61047 {}
36529 39417 {}
36529 42882 {}
36529 48254 {}
36529 48352 {}
36529 50956 {}
36529 55235 {}
36529 56886 {}
36529 61159 {}
39417 39418 {}
42882 42883 {}
48254 48256 {}
48352 48354 {}
50956 50957 {}
55235 55237 {}
56886 56887 {}
61159 61160 {}
36530 39322 {}
36530 42848 {}
36530 48447 {}
36530 48511 {}
36530 50923 {}
36530 55291 {}
36530 56846 {}
36530 61257 {}
39322 39324 {}
42848 42849 {}
48447 48448 {}
48511 48520 {}
50923 50925 {}
55291 55292 {}
56846 56847 {}
61257 61258 {}
36531 39306 {}
36531 42794 {}
36531 48617 {}
36531 48697 {}
36531 50871 {}
36531 55395 {}
36531 56802 {}
36531 61346 {}
39306 39307 {}
42794 42796 {}
48617 48618 {}
48697 48698 {}
50871 50872 {}
55395 55397 {}
56802 56804 {}
61346 61348 {}
36532 38924 {}
36532 42390 {}
36532 48784 {}
36532 48834 {}
36532 50521 {}
36532 55489 {}
36532 56447 {}
36532 61418 {}
38924 38928 {}
42390 42396 {}
48784 48785 {}
48834 48835 {}
50521 50522 {}
55489 55490 {}
56447 56448 {}
61418 61420 {}
36533 40605 {}
36533 44114 {}
36533 48948 {}
36533 49015 {}
36533 52207 {}
36533 55551 {}
36533 58129 {}
36533 61525 {}
40605 40606 {}
44114 44116 {}
48948 48949 {}
49015 49017 {}
52207 52208 {}
55551 55552 {}
58129 58130 {}
61525 61526 {}
36534 41183 {}
36534 44706 {}
36534 49103 {}
36534 49193 {}
36534 52785 {}
36534 55677 {}
36534 58703 {}
36534 61594 {}
41183 41184 {}
44706 44708 {}
49103 49105 {}
49193 49195 {}
52785 52786 {}
55677 55678 {}
58703 58704 {}
61594 61596 {}
36535 41130 {}
36535 44654 {}
36535 49255 {}
36535 49370 {}
36535 52719 {}
36535 55763 {}
36535 58639 {}
36535 61674 {}
41130 41131 {}
44654 44655 {}
49255 49257 {}
49370 49371 {}
52719 52721 {}
55763 55765 {}
58639 58641 {}
61674 61676 {}
36536 41085 {}
36536 44578 {}
36536 49431 {}
36536 49506 {}
36536 52661 {}
36536 55831 {}
36536 58582 {}
36536 61787 {}
41085 41093 {}
44578 44579 {}
49431 49447 {}
49506 49507 {}
52661 52663 {}
55831 55832 {}
58582 58583 {}
61787 61788 {}
36537 41048 {}
36537 44539 {}
36537 49596 {}
36537 49712 {}
36537 52602 {}
36537 55927 {}
36537 58549 {}
36537 61885 {}
41048 41049 {}
44539 44541 {}
49596 49597 {}
49712 49713 {}
52602 52603 {}
55927 55929 {}
58549 58551 {}
61885 61886 {}
36538 40967 {}
36538 44477 {}
36538 49792 {}
36538 49875 {}
36538 52548 {}
36538 55999 {}
36538 58478 {}
36538 61941 {}
40967 40969 {}
44477 44479 {}
49792 49793 {}
49875 49876 {}
52548 52549 {}
55999 56000 {}
58478 58479 {}
61941 61942 {}
36539 40860 {}
36539 44344 {}
36539 49973 {}
36539 50023 {}
36539 52451 {}
36539 56123 {}
36539 58358 {}
36539 62043 {}
40860 40862 {}
44344 44346 {}
49973 49974 {}
50023 50024 {}
52451 52452 {}
56123 56124 {}
58358 58366 {}
62043 62044 {}
36540 41282 {}
36540 44765 {}
36540 50136 {}
36540 50231 {}
36540 52848 {}
36540 56199 {}
36540 58811 {}
36540 62143 {}
41282 41284 {}
44765 44766 {}
50136 50137 {}
50231 50233 {}
52848 52850 {}
56199 56201 {}
58811 58812 {}
62143 62144 {}
36541 40463 {}
36541 42200 {}
36541 43927 {}
36541 45669 {}
36541 52011 {}
36541 53759 {}
36541 57952 {}
36541 59711 {}
40463 40465 {}
42200 42201 {}
43927 43929 {}
45669 45671 {}
52011 52013 {}
53759 53775 {}
57952 57953 {}
59711 59712 {}
36542 40418 {}
36542 42131 {}
36542 43884 {}
36542 45623 {}
36542 51983 {}
36542 53709 {}
36542 57920 {}
36542 59638 {}
40418 40419 {}
42131 42133 {}
43884 43885 {}
45623 45625 {}
51983 51985 {}
53709 53711 {}
57920 57921 {}
59638 59640 {}
36543 40335 {}
36543 42103 {}
36543 43828 {}
36543 45569 {}
36543 51944 {}
36543 53688 {}
36543 57859 {}
36543 59617 {}
40335 40337 {}
42103 42105 {}
43828 43829 {}
45569 45571 {}
51944 51945 {}
53688 53689 {}
57859 57861 {}
59617 59618 {}
36544 40318 {}
36544 42038 {}
36544 43779 {}
36544 45534 {}
36544 51884 {}
36544 53610 {}
36544 57810 {}
36544 59538 {}
40318 40319 {}
42038 42039 {}
43779 43803 {}
45534 45535 {}
51884 51885 {}
53610 53611 {}
57810 57811 {}
59538 59540 {}
36545 40268 {}
36545 41981 {}
36545 43738 {}
36545 45502 {}
36545 51826 {}
36545 53582 {}
36545 57764 {}
36545 59499 {}
40268 40269 {}
41981 41983 {}
43738 43739 {}
45502 45503 {}
51826 51827 {}
53582 53583 {}
57764 57765 {}
59499 59500 {}
36546 40203 {}
36546 41950 {}
36546 43699 {}
36546 45420 {}
36546 51784 {}
36546 53505 {}
36546 57723 {}
36546 59471 {}
40203 40205 {}
41950 41951 {}
43699 43701 {}
45420 45421 {}
51784 51785 {}
53505 53507 {}
57723 57725 {}
59471 59472 {}
36547 40142 {}
36547 41888 {}
36547 43630 {}
36547 45403 {}
36547 51723 {}
36547 53475 {}
36547 57667 {}
36547 59418 {}
40142 40144 {}
41888 41890 {}
43630 43632 {}
45403 45404 {}
51723 51746 {}
53475 53476 {}
57667 57668 {}
59418 59419 {}
36548 40077 {}
36548 40746 {}
36548 43596 {}
36548 44189 {}
36548 51664 {}
36548 52316 {}
36548 57584 {}
36548 58215 {}
40077 40079 {}
40746 40750 {}
43596 43598 {}
44189 44190 {}
51664 51665 {}
52316 52320 {}
57584 57585 {}
58215 58216 {}
36549 40021 {}
36549 42301 {}
36549 43544 {}
36549 45756 {}
36549 51637 {}
36549 53868 {}
36549 57563 {}
36549 59808 {}
40021 40022 {}
42301 42302 {}
43544 43545 {}
45756 45758 {}
51637 51638 {}
53868 53870 {}
57563 57564 {}
59808 59809 {}
36550 39966 {}
36550 43494 {}
36550 45882 {}
36550 46001 {}
36550 51549 {}
36550 53988 {}
36550 57482 {}
36550 59920 {}
39966 39967 {}
43494 43496 {}
45882 45883 {}
46001 46003 {}
51549 51551 {}
53988 53989 {}
57482 57483 {}
59920 59921 {}
36551 39912 {}
36551 43413 {}
36551 46101 {}
36551 46199 {}
36551 51502 {}
36551 54092 {}
36551 57455 {}
36551 59999 {}
39912 39914 {}
43413 43415 {}
46101 46103 {}
46199 46201 {}
51502 51504 {}
54092 54094 {}
57455 57456 {}
59999 60000 {}
36552 39880 {}
36552 43364 {}
36552 46343 {}
36552 46446 {}
36552 51474 {}
36552 54209 {}
36552 57368 {}
36552 60116 {}
39880 39881 {}
43364 43366 {}
46343 46345 {}
46446 46447 {}
51474 51475 {}
54209 54210 {}
57368 57369 {}
60116 60117 {}
36553 39804 {}
36553 43301 {}
36553 46537 {}
36553 46647 {}
36553 51421 {}
36553 54303 {}
36553 57321 {}
36553 60265 {}
39804 39806 {}
43301 43303 {}
46537 46539 {}
46647 46651 {}
51421 51422 {}
54303 54305 {}
57321 57322 {}
60265 60266 {}
36554 39787 {}
36554 43278 {}
36554 46760 {}
36554 46862 {}
36554 51344 {}
36554 54435 {}
36554 57260 {}
36554 60348 {}
39787 39788 {}
43278 43279 {}
46760 46762 {}
46862 46872 {}
51344 51345 {}
54435 54436 {}
57260 57261 {}
60348 60349 {}
36555 39707 {}
36555 43225 {}
36555 46964 {}
36555 47077 {}
36555 51277 {}
36555 54531 {}
36555 57207 {}
36555 60485 {}
39707 39731 {}
43225 43226 {}
46964 46966 {}
47077 47078 {}
51277 51278 {}
54531 54533 {}
57207 57208 {}
60485 60486 {}
36556 39679 {}
36556 43158 {}
36556 47187 {}
36556 47319 {}
36556 51254 {}
36556 54642 {}
36556 57183 {}
36556 60597 {}
39679 39680 {}
43158 43159 {}
47187 47188 {}
47319 47320 {}
51254 51255 {}
54642 54644 {}
57183 57185 {}
60597 60598 {}
36557 39618 {}
36557 43108 {}
36557 47410 {}
36557 47511 {}
36557 51171 {}
36557 54788 {}
36557 57134 {}
36557 60711 {}
39618 39620 {}
43108 43109 {}
47410 47412 {}
47511 47515 {}
51171 51173 {}
54788 54789 {}
57134 57135 {}
60711 60712 {}
36558 39574 {}
36558 43076 {}
36558 47643 {}
36558 47736 {}
36558 51149 {}
36558 54902 {}
36558 57069 {}
36558 60823 {}
39574 39575 {}
43076 43078 {}
47643 47644 {}
47736 47737 {}
51149 51150 {}
54902 54903 {}
57069 57070 {}
60823 60824 {}
36559 39502 {}
36559 42992 {}
36559 47826 {}
36559 47926 {}
36559 51063 {}
36559 54986 {}
36559 56989 {}
36559 60943 {}
39502 39504 {}
42992 42993 {}
47826 47828 {}
47926 47955 {}
51063 51065 {}
54986 54987 {}
56989 56991 {}
60943 60944 {}
36560 39469 {}
36560 42961 {}
36560 48060 {}
36560 48167 {}
36560 51008 {}
36560 55098 {}
36560 56971 {}
36560 61028 {}
39469 39471 {}
42961 42962 {}
48060 48061 {}
48167 48168 {}
51008 51010 {}
55098 55099 {}
56971 56972 {}
61028 61029 {}
36561 39413 {}
36561 42881 {}
36561 48250 {}
36561 48367 {}
36561 50987 {}
36561 55225 {}
36561 56903 {}
36561 61169 {}
39413 39414 {}
42881 42883 {}
48250 48252 {}
48367 48368 {}
50987 50989 {}
55225 55227 {}
56903 56905 {}
61169 61170 {}
36562 39349 {}
36562 42858 {}
36562 48419 {}
36562 48508 {}
36562 50924 {}
36562 55312 {}
36562 56856 {}
36562 61238 {}
39349 39350 {}
42858 42859 {}
48419 48420 {}
48508 48516 {}
50924 50925 {}
55312 55314 {}
56856 56857 {}
61238 61240 {}
36563 39283 {}
36563 42808 {}
36563 48607 {}
36563 48674 {}
36563 50858 {}
36563 55396 {}
36563 56796 {}
36563 61336 {}
39283 39285 {}
42808 42810 {}
48607 48608 {}
48674 48676 {}
50858 50860 {}
55396 55397 {}
56796 56798 {}
61336 61338 {}
36564 38953 {}
36564 42447 {}
36564 48774 {}
36564 48856 {}
36564 50488 {}
36564 55466 {}
36564 56400 {}
36564 61441 {}
38953 38954 {}
42447 42448 {}
48774 48775 {}
48856 48857 {}
50488 50492 {}
55466 55468 {}
56400 56406 {}
61441 61442 {}
36565 40591 {}
36565 44086 {}
36565 48935 {}
36565 49005 {}
36565 52203 {}
36565 55561 {}
36565 58110 {}
36565 61515 {}
40591 40592 {}
44086 44088 {}
48935 48937 {}
49005 49007 {}
52203 52204 {}
55561 55562 {}
58110 58112 {}
61515 61516 {}
36566 41197 {}
36566 44710 {}
36566 49094 {}
36566 49176 {}
36566 52795 {}
36566 55645 {}
36566 58721 {}
36566 61621 {}
41197 41198 {}
44710 44712 {}
49094 49095 {}
49176 49177 {}
52795 52796 {}
55645 55646 {}
58721 58722 {}
61621 61622 {}
36567 41140 {}
36567 44635 {}
36567 49278 {}
36567 49351 {}
36567 52720 {}
36567 55732 {}
36567 58636 {}
36567 61697 {}
41140 41141 {}
44635 44637 {}
49278 49279 {}
49351 49353 {}
52720 52721 {}
55732 55733 {}
58636 58637 {}
61697 61698 {}
36568 41077 {}
36568 44573 {}
36568 49436 {}
36568 49528 {}
36568 52677 {}
36568 55817 {}
36568 58603 {}
36568 61764 {}
41077 41101 {}
44573 44575 {}
49436 49441 {}
49528 49529 {}
52677 52679 {}
55817 55818 {}
58603 58605 {}
61764 61766 {}
36569 41032 {}
36569 44517 {}
36569 49592 {}
36569 49702 {}
36569 52633 {}
36569 55928 {}
36569 58550 {}
36569 61879 {}
41032 41033 {}
44517 44519 {}
49592 49593 {}
49702 49703 {}
52633 52635 {}
55928 55929 {}
58550 58551 {}
61879 61880 {}
36570 40964 {}
36570 44460 {}
36570 49769 {}
36570 49859 {}
36570 52558 {}
36570 56020 {}
36570 58475 {}
36570 61977 {}
40964 40965 {}
44460 44461 {}
49769 49771 {}
49859 49860 {}
52558 52559 {}
56020 56022 {}
58475 58499 {}
61977 61978 {}
36571 40875 {}
36571 44340 {}
36571 49954 {}
36571 50049 {}
36571 52429 {}
36571 56097 {}
36571 58350 {}
36571 62028 {}
40875 40876 {}
44340 44342 {}
49954 49956 {}
50049 50050 {}
52429 52430 {}
56097 56098 {}
58350 58374 {}
62028 62030 {}
36572 41278 {}
36572 44783 {}
36572 50123 {}
36572 50226 {}
36572 52870 {}
36572 56181 {}
36572 58797 {}
36572 62125 {}
41278 41280 {}
44783 44784 {}
50123 50125 {}
50226 50227 {}
52870 52872 {}
56181 56183 {}
58797 58798 {}
62125 62126 {}
36574 36577 {}
36574 38062 {}
36574 45861 {}
36574 46740 {}
36574 48027 {}
36574 48244 {}
36574 48745 {}
36574 49934 {}
36574 50105 {}
36574 50280 {}
36574 50303 {}
36574 50326 {}
36574 62625 {}
36574 62750 {}
36574 62853 {}
36574 62908 {}
36574 62959 {}
36574 62984 {}
36574 63039 {}
36574 63166 {}
36574 63219 {}
36574 63570 {}
36574 63673 {}
36574 63754 {}
36574 63833 {}
36574 63858 {}
36574 64039 {}
36574 64064 {}
36574 64093 {}
36574 64182 {}
36574 64191 {}
36574 64234 {}
36574 64259 {}
36574 64264 {}
36574 64299 {}
36574 64342 {}
36574 64353 {}
36574 64366 {}
36577 36578 {}
36577 62549 {}
36577 62590 {}
36577 63368 {}
36577 63409 {}
36577 63976 {}
36577 64435 {}
36577 64460 {}
38062 38063 {}
38062 38064 {}
45861 45862 {}
46740 46741 {}
48027 48028 {}
48244 48245 {}
48745 48746 {}
49934 49935 {}
50105 50106 {}
50280 50281 {}
50303 50304 {}
50326 50327 {}
62625 62626 {}
62750 62751 {}
62853 62854 {}
62908 62909 {}
62959 62960 {}
62984 62985 {}
63039 63040 {}
63166 63167 {}
63219 63220 {}
63570 63573 {}
63673 63676 {}
63754 63757 {}
63833 63836 {}
63858 63861 {}
64039 64042 {}
64064 64067 {}
64093 64096 {}
64182 64183 {}
64191 64192 {}
64234 64235 {}
64259 64260 {}
64264 64265 {}
64299 64300 {}
64342 64345 {}
64353 64354 {}
64366 64367 {}
36576 38048 {}
36576 38962 {}
36576 38972 {}
36576 38980 {}
36576 38990 {}
36576 39002 {}
36576 39008 {}
36576 39016 {}
36576 39026 {}
36576 39034 {}
36576 39044 {}
36576 39054 {}
36576 39064 {}
36576 39072 {}
36576 39082 {}
36576 39090 {}
36576 39100 {}
36576 39108 {}
36576 39118 {}
36576 39128 {}
36576 39135 {}
36576 39145 {}
36576 39152 {}
36576 39159 {}
36576 39249 {}
36576 40636 {}
36576 40884 {}
36576 40894 {}
36576 40902 {}
36576 40912 {}
36576 40920 {}
36576 40930 {}
36576 41314 {}
36576 42464 {}
36576 42474 {}
36576 42482 {}
36576 42492 {}
36576 42504 {}
36576 42510 {}
36576 42518 {}
36576 42528 {}
36576 42536 {}
36576 42546 {}
36576 42556 {}
36576 42566 {}
36576 42574 {}
36576 42584 {}
36576 42592 {}
36576 42599 {}
36576 42609 {}
36576 42619 {}
36576 42629 {}
36576 42636 {}
36576 42646 {}
36576 42653 {}
36576 42660 {}
36576 42752 {}
36576 44128 {}
36576 44376 {}
36576 44386 {}
36576 44394 {}
36576 44404 {}
36576 44412 {}
36576 44422 {}
36576 44806 {}
36576 50538 {}
36576 50548 {}
36576 50556 {}
36576 50566 {}
36576 50578 {}
36576 50584 {}
36576 50592 {}
36576 50602 {}
36576 50610 {}
36576 50620 {}
36576 50628 {}
36576 50638 {}
36576 50646 {}
36576 50656 {}
36576 50664 {}
36576 50674 {}
36576 50682 {}
36576 50692 {}
36576 50702 {}
36576 50709 {}
36576 50719 {}
36576 50726 {}
36576 50733 {}
36576 50824 {}
36576 52216 {}
36576 52464 {}
36576 52474 {}
36576 52482 {}
36576 52492 {}
36576 52500 {}
36576 52510 {}
36576 52894 {}
36576 56464 {}
36576 56474 {}
36576 56482 {}
36576 56492 {}
36576 56504 {}
36576 56510 {}
36576 56518 {}
36576 56528 {}
36576 56536 {}
36576 56546 {}
36576 56554 {}
36576 56564 {}
36576 56572 {}
36576 56582 {}
36576 56590 {}
36576 56600 {}
36576 56608 {}
36576 56618 {}
36576 56628 {}
36576 56635 {}
36576 56645 {}
36576 56652 {}
36576 56659 {}
36576 56750 {}
36576 58142 {}
36576 58390 {}
36576 58400 {}
36576 58408 {}
36576 58418 {}
36576 58426 {}
36576 58436 {}
36576 58820 {}
36576 62555 {}
36576 62601 {}
36576 63374 {}
36576 63420 {}
36576 63987 {}
36576 64433 {}
36576 64474 {}
36576 65797 {}
36576 65801 {}
36576 65805 {}
36576 65809 {}
36576 65813 {}
36576 65817 {}
36576 65821 {}
36576 65825 {}
36576 65829 {}
36576 65833 {}
36576 65837 {}
36576 65841 {}
36576 65845 {}
36576 65849 {}
36576 65853 {}
36576 65857 {}
36576 65861 {}
36576 65865 {}
36576 65869 {}
36576 65873 {}
36576 65877 {}
36576 65881 {}
36576 65885 {}
36576 65889 {}
36576 65893 {}
36576 65897 {}
36576 65901 {}
36576 65905 {}
36576 65909 {}
36576 65913 {}
36576 65917 {}
36576 65921 {}
36576 65925 {}
36576 65929 {}
36576 65933 {}
36576 65937 {}
36576 65941 {}
36576 65945 {}
36576 65949 {}
36576 65953 {}
36576 65957 {}
36576 65961 {}
36576 65965 {}
36576 65969 {}
36576 65973 {}
36576 65977 {}
36576 65981 {}
36576 65985 {}
36576 65989 {}
36576 65993 {}
36576 65997 {}
36576 66001 {}
36576 66005 {}
36576 66009 {}
36576 66013 {}
36576 66017 {}
36576 66021 {}
36576 66025 {}
36576 66029 {}
36576 66033 {}
36576 66037 {}
36576 66041 {}
36576 66045 {}
36576 66049 {}
36576 66053 {}
36576 66057 {}
36576 66061 {}
36576 66065 {}
36576 66069 {}
36576 66073 {}
36576 66077 {}
36576 66081 {}
36576 66085 {}
36576 66089 {}
36576 66093 {}
36576 66097 {}
36576 66101 {}
36576 66105 {}
36576 66109 {}
36576 66113 {}
36576 66117 {}
36576 66121 {}
36576 66125 {}
36576 66129 {}
36576 66133 {}
36576 66137 {}
36576 66141 {}
36576 66145 {}
36576 66149 {}
36576 66153 {}
36576 66157 {}
36576 66161 {}
36576 66165 {}
36576 66169 {}
36576 66173 {}
36576 66177 {}
36576 66181 {}
36576 66185 {}
36576 66189 {}
36576 66193 {}
36576 66197 {}
36576 66201 {}
36576 66205 {}
36576 66209 {}
36576 66213 {}
36576 66217 {}
36576 66221 {}
36576 66225 {}
36576 66229 {}
36576 66233 {}
36576 66237 {}
36576 66241 {}
36576 66245 {}
36576 66249 {}
36576 66253 {}
36576 66257 {}
36576 66261 {}
36576 66265 {}
36576 66269 {}
36576 66273 {}
36576 66277 {}
36576 66281 {}
36576 66285 {}
36576 66289 {}
36576 66293 {}
36576 66297 {}
36576 66301 {}
36576 66305 {}
38042 38043 {}
38042 38064 {}
38042 45864 {}
38042 46743 {}
38042 48030 {}
38042 48247 {}
38042 48748 {}
38042 49937 {}
38042 50108 {}
38042 50283 {}
38042 50306 {}
38042 50329 {}
38042 62628 {}
38042 62753 {}
38042 62856 {}
38042 62911 {}
38042 62962 {}
38042 62987 {}
38042 63042 {}
38042 63169 {}
38042 63222 {}
38042 63571 {}
38042 63674 {}
38042 63755 {}
38042 63834 {}
38042 63859 {}
38042 64040 {}
38042 64065 {}
38042 64094 {}
38042 64183 {}
38042 64194 {}
38042 64237 {}
38042 64262 {}
38042 64267 {}
38042 64302 {}
38042 64343 {}
38042 64354 {}
38042 64367 {}
38048 38049 {}
38048 38052 {}
38048 62556 {}
38048 62602 {}
38048 63375 {}
38048 63421 {}
38048 63988 {}
62555 62556 {}
62601 62602 {}
63374 63375 {}
63420 63421 {}
63987 63988 {}
63987 64460 {}
64433 64434 {}
64474 64475 {}
65797 65798 {}
65801 65802 {}
65805 65806 {}
65809 65810 {}
65813 65814 {}
65817 65818 {}
65821 65822 {}
65825 65826 {}
65829 65830 {}
65833 65834 {}
65837 65838 {}
65841 65842 {}
65845 65846 {}
65849 65850 {}
65853 65854 {}
65857 65858 {}
65861 65862 {}
65865 65866 {}
65869 65870 {}
65873 65874 {}
65877 65878 {}
65881 65882 {}
65885 65886 {}
65889 65890 {}
65893 65894 {}
65897 65898 {}
65901 65902 {}
65905 65906 {}
65909 65910 {}
65913 65914 {}
65917 65918 {}
65921 65922 {}
65925 65926 {}
65929 65930 {}
65933 65934 {}
65937 65938 {}
65941 65942 {}
65945 65946 {}
65949 65950 {}
65953 65954 {}
65957 65958 {}
65961 65962 {}
65965 65966 {}
65969 65970 {}
65973 65974 {}
65977 65978 {}
65981 65982 {}
65985 65986 {}
65989 65990 {}
65993 65994 {}
65997 65998 {}
66001 66002 {}
66005 66006 {}
66009 66010 {}
66013 66014 {}
66017 66018 {}
66021 66022 {}
66025 66026 {}
66029 66030 {}
66033 66034 {}
66037 66038 {}
66041 66042 {}
66045 66046 {}
66049 66050 {}
66053 66054 {}
66057 66058 {}
66061 66062 {}
66065 66066 {}
66069 66070 {}
66073 66074 {}
66077 66078 {}
66081 66082 {}
66085 66086 {}
66089 66090 {}
66093 66094 {}
66097 66098 {}
66101 66102 {}
66105 66106 {}
66109 66110 {}
66113 66114 {}
66117 66118 {}
66121 66122 {}
66125 66126 {}
66129 66130 {}
66133 66134 {}
66137 66138 {}
66141 66142 {}
66145 66146 {}
66149 66150 {}
66153 66154 {}
66157 66158 {}
66161 66162 {}
66165 66166 {}
66169 66170 {}
66173 66174 {}
66177 66178 {}
66181 66182 {}
66185 66186 {}
66189 66190 {}
66193 66194 {}
66197 66198 {}
66201 66202 {}
66205 66206 {}
66209 66210 {}
66213 66214 {}
66217 66218 {}
66221 66222 {}
66225 66226 {}
66229 66230 {}
66233 66234 {}
66237 66238 {}
66241 66242 {}
66245 66246 {}
66249 66250 {}
66253 66254 {}
66257 66258 {}
66261 66262 {}
66265 66266 {}
66269 66270 {}
66273 66274 {}
66277 66278 {}
66281 66282 {}
66285 66286 {}
66289 66290 {}
66293 66294 {}
66297 66298 {}
66301 66302 {}
66305 66306 {}
36578 38078 {}
36578 38084 {}
36578 38088 {}
36578 38094 {}
36578 38964 {}
36578 38974 {}
36578 38983 {}
36578 38993 {}
36578 38998 {}
36578 39011 {}
36578 39019 {}
36578 39029 {}
36578 39036 {}
36578 39046 {}
36578 39057 {}
36578 39066 {}
36578 39074 {}
36578 39085 {}
36578 39093 {}
36578 39102 {}
36578 39110 {}
36578 39120 {}
36578 39131 {}
36578 39137 {}
36578 39148 {}
36578 39155 {}
36578 39162 {}
36578 39251 {}
36578 40639 {}
36578 40663 {}
36578 40769 {}
36578 40776 {}
36578 40791 {}
36578 40798 {}
36578 40810 {}
36578 40817 {}
36578 40831 {}
36578 40835 {}
36578 40886 {}
36578 40897 {}
36578 40905 {}
36578 40915 {}
36578 40923 {}
36578 40933 {}
36578 41317 {}
36578 41355 {}
36578 41361 {}
36578 41376 {}
36578 41383 {}
36578 41396 {}
36578 41404 {}
36578 41418 {}
36578 41425 {}
36578 41438 {}
36578 41446 {}
36578 41460 {}
36578 41467 {}
36578 41479 {}
36578 41483 {}
36578 41487 {}
36578 41504 {}
36578 41511 {}
36578 41525 {}
36578 41529 {}
36578 41546 {}
36578 41553 {}
36578 41564 {}
36578 41571 {}
36578 41585 {}
36578 41592 {}
36578 41603 {}
36578 41610 {}
36578 41621 {}
36578 41628 {}
36578 41832 {}
36578 41836 {}
36578 42315 {}
36578 42319 {}
36578 42466 {}
36578 42477 {}
36578 42485 {}
36578 42495 {}
36578 42501 {}
36578 42513 {}
36578 42521 {}
36578 42530 {}
36578 42538 {}
36578 42548 {}
36578 42559 {}
36578 42568 {}
36578 42577 {}
36578 42587 {}
36578 42595 {}
36578 42601 {}
36578 42612 {}
36578 42622 {}
36578 42631 {}
36578 42639 {}
36578 42649 {}
36578 42656 {}
36578 42662 {}
36578 42754 {}
36578 44130 {}
36578 44154 {}
36578 44262 {}
36578 44269 {}
36578 44283 {}
36578 44290 {}
36578 44302 {}
36578 44309 {}
36578 44323 {}
36578 44326 {}
36578 44379 {}
36578 44389 {}
36578 44397 {}
36578 44407 {}
36578 44415 {}
36578 44425 {}
36578 44808 {}
36578 44847 {}
36578 44854 {}
36578 44868 {}
36578 44875 {}
36578 44889 {}
36578 44896 {}
36578 44910 {}
36578 44917 {}
36578 44930 {}
36578 44938 {}
36578 44952 {}
36578 44959 {}
36578 44971 {}
36578 44975 {}
36578 44983 {}
36578 44996 {}
36578 45003 {}
36578 45017 {}
36578 45021 {}
36578 45038 {}
36578 45046 {}
36578 45057 {}
36578 45064 {}
36578 45078 {}
36578 45085 {}
36578 45096 {}
36578 45103 {}
36578 45114 {}
36578 45121 {}
36578 45325 {}
36578 45329 {}
36578 45808 {}
36578 45812 {}
36578 45920 {}
36578 45924 {}
36578 45972 {}
36578 46028 {}
36578 46032 {}
36578 46136 {}
36578 46140 {}
36578 46192 {}
36578 46244 {}
36578 46248 {}
36578 46360 {}
36578 46364 {}
36578 46410 {}
36578 46466 {}
36578 46470 {}
36578 46578 {}
36578 46582 {}
36578 46686 {}
36578 46690 {}
36578 46799 {}
36578 46803 {}
36578 46851 {}
36578 46907 {}
36578 46911 {}
36578 47015 {}
36578 47019 {}
36578 47121 {}
36578 47125 {}
36578 47177 {}
36578 47235 {}
36578 47239 {}
36578 47283 {}
36578 47339 {}
36578 47343 {}
36578 47446 {}
36578 47450 {}
36578 47494 {}
36578 47545 {}
36578 47549 {}
36578 47656 {}
36578 47660 {}
36578 47706 {}
36578 47759 {}
36578 47763 {}
36578 47862 {}
36578 47866 {}
36578 47969 {}
36578 47973 {}
36578 48083 {}
36578 48087 {}
36578 48190 {}
36578 48194 {}
36578 48327 {}
36578 48575 {}
36578 48830 {}
36578 49084 {}
36578 49250 {}
36578 49334 {}
36578 49502 {}
36578 49754 {}
36578 50345 {}
36578 50355 {}
36578 50375 {}
36578 50403 {}
36578 50413 {}
36578 50441 {}
36578 50540 {}
36578 50550 {}
36578 50558 {}
36578 50568 {}
36578 50574 {}
36578 50586 {}
36578 50594 {}
36578 50604 {}
36578 50612 {}
36578 50622 {}
36578 50630 {}
36578 50640 {}
36578 50648 {}
36578 50658 {}
36578 50666 {}
36578 50676 {}
36578 50684 {}
36578 50694 {}
36578 50704 {}
36578 50711 {}
36578 50721 {}
36578 50728 {}
36578 50735 {}
36578 50826 {}
36578 52218 {}
36578 52242 {}
36578 52349 {}
36578 52356 {}
36578 52370 {}
36578 52377 {}
36578 52389 {}
36578 52396 {}
36578 52410 {}
36578 52414 {}
36578 52466 {}
36578 52476 {}
36578 52484 {}
36578 52494 {}
36578 52502 {}
36578 52512 {}
36578 52896 {}
36578 52932 {}
36578 52939 {}
36578 52953 {}
36578 52957 {}
36578 52974 {}
36578 52981 {}
36578 52995 {}
36578 52999 {}
36578 53016 {}
36578 53023 {}
36578 53037 {}
36578 53044 {}
36578 53056 {}
36578 53061 {}
36578 53065 {}
36578 53082 {}
36578 53089 {}
36578 53103 {}
36578 53107 {}
36578 53124 {}
36578 53131 {}
36578 53142 {}
36578 53149 {}
36578 53163 {}
36578 53170 {}
36578 53181 {}
36578 53188 {}
36578 53199 {}
36578 53206 {}
36578 53410 {}
36578 53414 {}
36578 53893 {}
36578 53897 {}
36578 53947 {}
36578 53952 {}
36578 54008 {}
36578 54012 {}
36578 54067 {}
36578 54119 {}
36578 54123 {}
36578 54183 {}
36578 54239 {}
36578 54243 {}
36578 54296 {}
36578 54350 {}
36578 54354 {}
36578 54409 {}
36578 54465 {}
36578 54469 {}
36578 54524 {}
36578 54576 {}
36578 54580 {}
36578 54639 {}
36578 54695 {}
36578 54699 {}
36578 54752 {}
36578 54803 {}
36578 54807 {}
36578 54862 {}
36578 54915 {}
36578 54919 {}
36578 54972 {}
36578 55021 {}
36578 55025 {}
36578 55084 {}
36578 55137 {}
36578 55141 {}
36578 55196 {}
36578 55283 {}
36578 55370 {}
36578 55459 {}
36578 55632 {}
36578 55637 {}
36578 55724 {}
36578 55813 {}
36578 55902 {}
36578 55991 {}
36578 56083 {}
36578 56172 {}
36578 56265 {}
36578 56286 {}
36578 56291 {}
36578 56304 {}
36578 56317 {}
36578 56330 {}
36578 56343 {}
36578 56356 {}
36578 56369 {}
36578 56466 {}
36578 56476 {}
36578 56484 {}
36578 56494 {}
36578 56500 {}
36578 56512 {}
36578 56520 {}
36578 56530 {}
36578 56538 {}
36578 56548 {}
36578 56556 {}
36578 56566 {}
36578 56574 {}
36578 56584 {}
36578 56592 {}
36578 56602 {}
36578 56610 {}
36578 56620 {}
36578 56630 {}
36578 56637 {}
36578 56647 {}
36578 56654 {}
36578 56661 {}
36578 56752 {}
36578 58144 {}
36578 58168 {}
36578 58275 {}
36578 58282 {}
36578 58296 {}
36578 58303 {}
36578 58315 {}
36578 58322 {}
36578 58336 {}
36578 58340 {}
36578 58392 {}
36578 58402 {}
36578 58410 {}
36578 58420 {}
36578 58428 {}
36578 58438 {}
36578 58822 {}
36578 58860 {}
36578 58867 {}
36578 58881 {}
36578 58885 {}
36578 58902 {}
36578 58909 {}
36578 58923 {}
36578 58927 {}
36578 58944 {}
36578 58951 {}
36578 58965 {}
36578 58972 {}
36578 58986 {}
36578 58991 {}
36578 58995 {}
36578 59012 {}
36578 59019 {}
36578 59033 {}
36578 59037 {}
36578 59054 {}
36578 59061 {}
36578 59072 {}
36578 59079 {}
36578 59093 {}
36578 59100 {}
36578 59111 {}
36578 59118 {}
36578 59129 {}
36578 59136 {}
36578 59339 {}
36578 59343 {}
36578 59822 {}
36578 59826 {}
36578 59880 {}
36578 59936 {}
36578 59940 {}
36578 60047 {}
36578 60051 {}
36578 60107 {}
36578 60112 {}
36578 60168 {}
36578 60172 {}
36578 60279 {}
36578 60283 {}
36578 60334 {}
36578 60340 {}
36578 60396 {}
36578 60400 {}
36578 60507 {}
36578 60511 {}
36578 60566 {}
36578 60627 {}
36578 60631 {}
36578 60680 {}
36578 60736 {}
36578 60740 {}
36578 60792 {}
36578 60797 {}
36578 60850 {}
36578 60854 {}
36578 60956 {}
36578 60960 {}
36578 61016 {}
36578 61073 {}
36578 61077 {}
36578 61128 {}
36578 61217 {}
36578 61305 {}
36578 61310 {}
36578 61400 {}
36578 61575 {}
36578 61580 {}
36578 61753 {}
36578 61843 {}
36578 61848 {}
36578 62021 {}
36578 62111 {}
36578 62203 {}
36578 62208 {}
36578 62231 {}
36578 62236 {}
36578 62258 {}
36578 62264 {}
36578 62286 {}
36578 62292 {}
36578 62306 {}
36578 62320 {}
36578 62329 {}
36578 62335 {}
36578 62341 {}
36578 62348 {}
36578 62355 {}
36578 62363 {}
36578 62371 {}
36578 62376 {}
36578 62384 {}
36578 62390 {}
36578 62397 {}
36578 62406 {}
36578 62411 {}
36578 62420 {}
36578 62425 {}
36578 62433 {}
36578 62441 {}
36578 62446 {}
36578 62453 {}
36578 62460 {}
36578 62467 {}
36578 62476 {}
36578 62482 {}
36578 62488 {}
36578 62497 {}
36578 62502 {}
36578 62509 {}
36578 62516 {}
36578 62524 {}
36578 62530 {}
36578 62539 {}
36578 62566 {}
36578 62639 {}
36578 62665 {}
36578 62702 {}
36578 62715 {}
36578 62775 {}
36578 62790 {}
36578 62829 {}
36578 62867 {}
36578 62922 {}
36578 63000 {}
36578 63064 {}
36578 63077 {}
36578 63103 {}
36578 63131 {}
36578 63180 {}
36578 63233 {}
36578 63272 {}
36578 63285 {}
36578 63326 {}
36578 63343 {}
36578 63385 {}
36578 63433 {}
36578 63457 {}
36578 63483 {}
36578 63509 {}
36578 63546 {}
36578 63584 {}
36578 63612 {}
36578 63638 {}
36578 63687 {}
36578 63715 {}
36578 63779 {}
36578 63792 {}
36578 63883 {}
36578 63896 {}
36578 63924 {}
36578 63963 {}
36578 64011 {}
36578 64107 {}
36578 64148 {}
36578 64178 {}
36578 64186 {}
36578 64196 {}
36578 64199 {}
36578 64204 {}
36578 64208 {}
36578 64211 {}
36578 64218 {}
36578 64221 {}
36578 64227 {}
36578 64239 {}
36578 64242 {}
36578 64248 {}
36578 64252 {}
36578 64268 {}
36578 64275 {}
36578 64279 {}
36578 64282 {}
36578 64288 {}
36578 64294 {}
36578 64303 {}
36578 64310 {}
36578 64313 {}
36578 64319 {}
36578 64325 {}
36578 64332 {}
36578 64335 {}
36578 64346 {}
36578 64357 {}
36578 64361 {}
36578 64370 {}
36578 64377 {}
36578 64381 {}
36578 64384 {}
36578 64390 {}
36578 64396 {}
36578 64401 {}
36578 64404 {}
36578 64410 {}
36578 64416 {}
36578 64422 {}
36578 64428 {}
36578 64432 {}
36578 64437 {}
36578 64444 {}
36578 64448 {}
36578 64451 {}
36578 64456 {}
36578 64459 {}
36578 64462 {}
36578 64469 {}
36578 64480 {}
36578 64483 {}
36578 64489 {}
36578 64496 {}
36578 64507 {}
36578 64520 {}
36578 64533 {}
36578 64547 {}
36578 64560 {}
36578 64573 {}
36578 64586 {}
36578 64599 {}
36578 64607 {}
36578 64621 {}
36578 64639 {}
36578 64652 {}
36578 64665 {}
36578 64678 {}
36578 64686 {}
36578 64704 {}
36578 64717 {}
36578 64730 {}
36578 64738 {}
36578 64751 {}
36578 64770 {}
36578 64783 {}
36578 64796 {}
36578 64811 {}
36578 64824 {}
36578 64837 {}
36578 64852 {}
36578 64860 {}
36578 64878 {}
36578 64891 {}
36578 64905 {}
36578 64918 {}
36578 64926 {}
36578 64936 {}
36578 64948 {}
36578 64958 {}
36578 64966 {}
36578 64978 {}
36578 64988 {}
36578 64998 {}
36578 65007 {}
36578 65019 {}
36578 65029 {}
36578 65037 {}
36578 65049 {}
36578 65059 {}
36578 65068 {}
36578 65080 {}
36578 65088 {}
36578 65100 {}
36578 65110 {}
36578 65120 {}
36578 65130 {}
36578 65140 {}
36578 65150 {}
36578 65161 {}
36578 65171 {}
36578 65181 {}
36578 65192 {}
36578 65202 {}
36578 65210 {}
36578 65222 {}
36578 65233 {}
36578 65241 {}
36578 65253 {}
36578 65263 {}
36578 65273 {}
36578 65283 {}
36578 65293 {}
36578 65303 {}
36578 65313 {}
36578 65323 {}
36578 65333 {}
36578 65343 {}
36578 65351 {}
36578 65363 {}
36578 65373 {}
36578 65383 {}
36578 65393 {}
36578 65403 {}
36578 65413 {}
36578 65421 {}
36578 65433 {}
36578 65443 {}
36578 65453 {}
36578 65461 {}
36578 65471 {}
36578 65484 {}
36578 65495 {}
36578 65503 {}
36578 65516 {}
36578 65524 {}
36578 65534 {}
36578 65544 {}
36578 65557 {}
36578 65565 {}
36578 65574 {}
36578 65579 {}
36578 65588 {}
36578 65593 {}
36578 65600 {}
36578 65607 {}
36578 65616 {}
36578 65623 {}
36578 65628 {}
36578 65637 {}
36578 65644 {}
36578 65651 {}
36578 65658 {}
36578 65665 {}
36578 65672 {}
36578 65679 {}
36578 65686 {}
36578 65693 {}
36578 65700 {}
36578 65705 {}
36578 65712 {}
36578 65719 {}
36578 65728 {}
36578 65735 {}
36578 65742 {}
36578 65747 {}
36578 65754 {}
36578 65763 {}
36578 65770 {}
36578 65775 {}
36578 65782 {}
36578 65789 {}
62549 62557 {}
62590 62603 {}
63368 63376 {}
63409 63422 {}
63976 63989 {}
64435 64436 {}
64460 64461 {}
38088 38089 {}
45972 46083 {}
46192 46303 {}
46410 46523 {}
46851 46960 {}
47177 47178 {}
47283 47392 {}
47494 47602 {}
47706 47812 {}
48327 48410 {}
48575 48576 {}
48830 48917 {}
49084 49085 {}
49250 49251 {}
49334 49419 {}
49502 49587 {}
49754 49755 {}
50345 50346 {}
50355 50366 {}
50375 50386 {}
50403 50404 {}
50413 50424 {}
50441 50442 {}
53947 53948 {}
53952 54065 {}
54067 54179 {}
54183 54294 {}
54296 54407 {}
54409 54522 {}
54524 54637 {}
54639 54750 {}
54752 54858 {}
54862 54970 {}
54972 55080 {}
55084 55194 {}
55196 55281 {}
55283 55366 {}
55370 55455 {}
55459 55544 {}
55632 55633 {}
55637 55720 {}
55724 55809 {}
55813 55900 {}
55902 55989 {}
55991 56081 {}
56083 56168 {}
56172 56261 {}
56265 56274 {}
56286 56287 {}
56291 56300 {}
56304 56315 {}
56317 56328 {}
56330 56341 {}
56343 56354 {}
56356 56367 {}
56369 59878 {}
59880 59992 {}
60107 60108 {}
60112 60222 {}
60334 60336 {}
60340 60452 {}
60566 60568 {}
60680 60682 {}
60792 60793 {}
60797 60904 {}
61016 61017 {}
61128 61130 {}
61217 61218 {}
61305 61306 {}
61310 61396 {}
61400 61488 {}
61575 61576 {}
61580 61666 {}
61753 61754 {}
61843 61844 {}
61848 61936 {}
62021 62022 {}
62111 62112 {}
62203 62204 {}
62208 62220 {}
62231 62232 {}
62236 62248 {}
62258 62260 {}
62264 62276 {}
62286 62288 {}
62292 62302 {}
62306 62318 {}
62320 62323 {}
62329 62330 {}
62335 62337 {}
62341 62346 {}
62348 62353 {}
62355 62358 {}
62363 62365 {}
62371 62372 {}
62376 62379 {}
62384 62386 {}
62390 62395 {}
62397 62400 {}
62406 62407 {}
62411 62414 {}
62420 62421 {}
62425 62430 {}
62433 62435 {}
62441 62442 {}
62446 62451 {}
62453 62458 {}
62460 62465 {}
62467 62470 {}
62476 62477 {}
62482 62486 {}
62488 62493 {}
62497 62498 {}
62502 62507 {}
62509 62514 {}
62516 62519 {}
62524 62526 {}
62530 62535 {}
62539 62540 {}
62566 62578 {}
62639 62653 {}
62665 62677 {}
62702 62703 {}
62715 62727 {}
62775 62776 {}
62790 62806 {}
62829 62830 {}
62867 62881 {}
62922 62936 {}
63000 63016 {}
63064 63065 {}
63077 63089 {}
63103 63119 {}
63131 63143 {}
63180 63192 {}
63233 63245 {}
63272 63273 {}
63285 63299 {}
63326 63327 {}
63343 63361 {}
63385 63397 {}
63433 63445 {}
63457 63471 {}
63483 63497 {}
63509 63523 {}
63546 63547 {}
63584 63598 {}
63612 63626 {}
63638 63650 {}
63687 63701 {}
63715 63731 {}
63779 63780 {}
63792 63806 {}
63883 63884 {}
63896 63910 {}
63924 63940 {}
63963 63964 {}
64011 64012 {}
64107 64121 {}
64148 64149 {}
64178 64179 {}
64186 64188 {}
64196 64197 {}
64199 64201 {}
64204 64205 {}
64208 64209 {}
64211 64215 {}
64218 64219 {}
64221 64225 {}
64227 64229 {}
64239 64240 {}
64242 64246 {}
64248 64250 {}
64252 64254 {}
64268 64272 {}
64275 64276 {}
64279 64280 {}
64282 64286 {}
64288 64292 {}
64294 64296 {}
64303 64307 {}
64310 64311 {}
64313 64317 {}
64319 64323 {}
64325 64329 {}
64332 64333 {}
64335 64339 {}
64346 64348 {}
64357 64359 {}
64361 64363 {}
64370 64374 {}
64377 64378 {}
64381 64382 {}
64384 64386 {}
64390 64394 {}
64396 64398 {}
64401 64402 {}
64404 64408 {}
64410 64414 {}
64416 64418 {}
64422 64424 {}
64428 64430 {}
64432 64433 {}
64437 64439 {}
64444 64445 {}
64448 64449 {}
64451 64453 {}
64456 64457 {}
64459 64461 {}
64462 64466 {}
64469 64470 {}
64480 64481 {}
64483 64485 {}
64489 64493 {}
64496 64497 {}
64507 64508 {}
64520 64521 {}
64533 64534 {}
64547 64548 {}
64560 64561 {}
64573 64574 {}
64586 64587 {}
64599 64600 {}
64607 64614 {}
64621 64629 {}
64639 64640 {}
64652 64653 {}
64665 64666 {}
64678 64679 {}
64686 64694 {}
64704 64705 {}
64717 64718 {}
64730 64731 {}
64738 64746 {}
64751 64759 {}
64770 64771 {}
64783 64784 {}
64796 64797 {}
64811 64812 {}
64824 64825 {}
64837 64838 {}
64852 64853 {}
64860 64868 {}
64878 64879 {}
64891 64892 {}
64905 64908 {}
64918 64919 {}
64926 64931 {}
64936 64939 {}
64948 64949 {}
64958 64959 {}
64966 64971 {}
64978 64979 {}
64988 64989 {}
64998 64999 {}
65007 65012 {}
65019 65020 {}
65029 65030 {}
65037 65040 {}
65049 65050 {}
65059 65060 {}
65068 65073 {}
65080 65081 {}
65088 65091 {}
65100 65101 {}
65110 65111 {}
65120 65121 {}
65130 65131 {}
65140 65141 {}
65150 65151 {}
65161 65162 {}
65171 65172 {}
65181 65182 {}
65192 65193 {}
65202 65203 {}
65210 65215 {}
65222 65223 {}
65233 65234 {}
65241 65246 {}
65253 65254 {}
65263 65264 {}
65273 65274 {}
65283 65284 {}
65293 65294 {}
65303 65304 {}
65313 65314 {}
65323 65324 {}
65333 65334 {}
65343 65344 {}
65351 65356 {}
65363 65364 {}
65373 65374 {}
65383 65384 {}
65393 65394 {}
65403 65404 {}
65413 65414 {}
65421 65426 {}
65433 65434 {}
65443 65444 {}
65453 65454 {}
65461 65466 {}
65471 65476 {}
65484 65485 {}
65495 65498 {}
65503 65506 {}
65516 65517 {}
65524 65529 {}
65534 65539 {}
65544 65549 {}
65557 65558 {}
65565 65570 {}
65574 65575 {}
65579 65582 {}
65588 65589 {}
65593 65598 {}
65600 65603 {}
65607 65610 {}
65616 65617 {}
65623 65624 {}
65628 65633 {}
65637 65638 {}
65644 65645 {}
65651 65652 {}
65658 65659 {}
65665 65666 {}
65672 65673 {}
65679 65680 {}
65686 65687 {}
65693 65694 {}
65700 65701 {}
65705 65710 {}
65712 65717 {}
65719 65722 {}
65728 65729 {}
65735 65736 {}
65742 65743 {}
65747 65750 {}
65754 65757 {}
65763 65764 {}
65770 65771 {}
65775 65778 {}
65782 65785 {}
65789 65792 {}
36579 36580 {}
36580 36581 {}
36580 36595 {}
36581 36582 {}
36582 36583 {}
36582 38036 {}
36582 38074 {}
38036 38037 {}
38036 38038 {}
38036 38054 {}
36584 38065 {}
36600 36601 {}
36624 36625 {}
36637 36638 {}
36650 36651 {}
36663 36664 {}
36676 36677 {}
36689 36690 {}
36702 36703 {}
36715 36716 {}
36750 36751 {}
36774 36775 {}
36798 36799 {}
36833 36834 {}
36857 36858 {}
36881 36882 {}
36916 36917 {}
36929 36930 {}
36942 36943 {}
36966 36967 {}
36979 36980 {}
37014 37015 {}
37027 37028 {}
37040 37041 {}
37053 37054 {}
37077 37078 {}
37090 37091 {}
37103 37104 {}
37127 37128 {}
37140 37141 {}
37186 37187 {}
37199 37200 {}
37212 37213 {}
37225 37226 {}
37260 37261 {}
37284 37285 {}
37341 37342 {}
37365 37366 {}
37378 37379 {}
37391 37392 {}
37415 37416 {}
37439 37440 {}
37452 37453 {}
37465 37466 {}
37478 37479 {}
37513 37514 {}
37526 37527 {}
37550 37551 {}
37563 37564 {}
37587 37588 {}
37600 37601 {}
37613 37614 {}
37637 37638 {}
37650 37651 {}
37663 37664 {}
37676 37677 {}
37722 37723 {}
37757 37758 {}
37770 37771 {}
37805 37806 {}
37818 37819 {}
37831 37832 {}
37877 37878 {}
37934 37935 {}
37947 37948 {}
37971 37972 {}
37995 37996 {}
38008 38009 {}
38038 38039 {}
38050 38051 {}
66319 66320 {}
66354 66355 {}
66367 66368 {}
66413 66414 {}
66437 66438 {}
66450 66451 {}
66485 66486 {}
66498 66499 {}
66566 66567 {}
66579 66580 {}
66592 66593 {}
66605 66606 {}
66618 66619 {}
66642 66643 {}
66655 66656 {}
66679 66680 {}
66703 66704 {}
66716 66717 {}
66740 66741 {}
66764 66765 {}
66788 66789 {}
66801 66802 {}
66836 66837 {}
66849 66850 {}
66873 66874 {}
66886 66887 {}
66899 66900 {}
66912 66913 {}
66980 66981 {}
66993 66994 {}
67006 67007 {}
67019 67020 {}
67032 67033 {}
67045 67046 {}
67113 67114 {}
67126 67127 {}
67172 67173 {}
67218 67219 {}
67242 67243 {}
67255 67256 {}
67279 67280 {}
67303 67304 {}
67371 67372 {}
67384 67385 {}
67408 67409 {}
67421 67422 {}
67456 67457 {}
67469 67470 {}
67482 67483 {}
67495 67496 {}
67508 67509 {}
67521 67522 {}
67534 67535 {}
67547 67548 {}
67582 67583 {}
67617 67618 {}
67641 67642 {}
67676 67677 {}
67689 67690 {}
67702 67703 {}
67759 67760 {}
67805 67806 {}
67829 67830 {}
67864 67865 {}
67888 67889 {}
67901 67902 {}
67914 67915 {}
67949 67950 {}
38065 38069 {}
36589 36591 {}
36587 36590 {}
36590 36592 {}
36592 36597 {}
36599 36600 {}
36597 36598 {}
36594 38071 {}
38044 38045 {}
36596 36597 {}
36596 36610 {}
36596 36621 {}
36596 36634 {}
36596 36647 {}
36596 36660 {}
36596 36673 {}
36596 36686 {}
36596 36699 {}
36596 36712 {}
36596 36725 {}
36596 36736 {}
36596 36747 {}
36596 36760 {}
36596 36771 {}
36596 36784 {}
36596 36795 {}
36596 36808 {}
36596 36819 {}
36596 36830 {}
36596 36843 {}
36596 36854 {}
36596 36867 {}
36596 36878 {}
36596 36891 {}
36596 36902 {}
36596 36913 {}
36596 36926 {}
36596 36939 {}
36596 36952 {}
36596 36963 {}
36596 36976 {}
36596 36989 {}
36596 37000 {}
36596 37011 {}
36596 37024 {}
36596 37037 {}
36596 37050 {}
36596 37063 {}
36596 37074 {}
36596 37087 {}
36596 37100 {}
36596 37113 {}
36596 37124 {}
36596 37137 {}
36596 37150 {}
36596 37161 {}
36596 37172 {}
36596 37183 {}
36596 37196 {}
36596 37209 {}
36596 37222 {}
36596 37235 {}
36596 37246 {}
36596 37257 {}
36596 37270 {}
36596 37281 {}
36596 37294 {}
36596 37305 {}
36596 37316 {}
36596 37327 {}
36596 37338 {}
36596 37351 {}
36596 37362 {}
36596 37375 {}
36596 37388 {}
36596 37401 {}
36596 37412 {}
36596 37425 {}
36596 37436 {}
36596 37449 {}
36596 37462 {}
36596 37475 {}
36596 37488 {}
36596 37499 {}
36596 37510 {}
36596 37523 {}
36596 37536 {}
36596 37547 {}
36596 37560 {}
36596 37573 {}
36596 37584 {}
36596 37597 {}
36596 37610 {}
36596 37623 {}
36596 37634 {}
36596 37647 {}
36596 37660 {}
36596 37673 {}
36596 37686 {}
36596 37697 {}
36596 37708 {}
36596 37719 {}
36596 37732 {}
36596 37743 {}
36596 37754 {}
36596 37767 {}
36596 37780 {}
36596 37791 {}
36596 37802 {}
36596 37815 {}
36596 37828 {}
36596 37841 {}
36596 37852 {}
36596 37863 {}
36596 37874 {}
36596 37887 {}
36596 37898 {}
36596 37909 {}
36596 37920 {}
36596 37931 {}
36596 37944 {}
36596 37957 {}
36596 37968 {}
36596 37981 {}
36596 37992 {}
36596 38005 {}
36596 38018 {}
36596 66316 {}
36596 66329 {}
36596 66340 {}
36596 66351 {}
36596 66364 {}
36596 66377 {}
36596 66388 {}
36596 66399 {}
36596 66410 {}
36596 66423 {}
36596 66434 {}
36596 66447 {}
36596 66460 {}
36596 66471 {}
36596 66482 {}
36596 66495 {}
36596 66508 {}
36596 66519 {}
36596 66530 {}
36596 66541 {}
36596 66552 {}
36596 66563 {}
36596 66576 {}
36596 66589 {}
36596 66602 {}
36596 66615 {}
36596 66628 {}
36596 66639 {}
36596 66652 {}
36596 66665 {}
36596 66676 {}
36596 66689 {}
36596 66700 {}
36596 66713 {}
36596 66726 {}
36596 66737 {}
36596 66750 {}
36596 66761 {}
36596 66774 {}
36596 66785 {}
36596 66798 {}
36596 66811 {}
36596 66822 {}
36596 66833 {}
36596 66846 {}
36596 66859 {}
36596 66870 {}
36596 66883 {}
36596 66896 {}
36596 66909 {}
36596 66922 {}
36596 66933 {}
36596 66944 {}
36596 66955 {}
36596 66966 {}
36596 66977 {}
36596 66990 {}
36596 67003 {}
36596 67016 {}
36596 67029 {}
36596 67042 {}
36596 67055 {}
36596 67066 {}
36596 67077 {}
36596 67088 {}
36596 67099 {}
36596 67110 {}
36596 67123 {}
36596 67136 {}
36596 67147 {}
36596 67158 {}
36596 67169 {}
36596 67182 {}
36596 67193 {}
36596 67204 {}
36596 67215 {}
36596 67228 {}
36596 67239 {}
36596 67252 {}
36596 67265 {}
36596 67276 {}
36596 67289 {}
36596 67300 {}
36596 67313 {}
36596 67324 {}
36596 67335 {}
36596 67346 {}
36596 67357 {}
36596 67368 {}
36596 67381 {}
36596 67394 {}
36596 67405 {}
36596 67418 {}
36596 67431 {}
36596 67442 {}
36596 67453 {}
36596 67466 {}
36596 67479 {}
36596 67492 {}
36596 67505 {}
36596 67518 {}
36596 67531 {}
36596 67544 {}
36596 67557 {}
36596 67568 {}
36596 67579 {}
36596 67592 {}
36596 67603 {}
36596 67614 {}
36596 67627 {}
36596 67638 {}
36596 67651 {}
36596 67662 {}
36596 67673 {}
36596 67686 {}
36596 67699 {}
36596 67712 {}
36596 67723 {}
36596 67734 {}
36596 67745 {}
36596 67756 {}
36596 67769 {}
36596 67780 {}
36596 67791 {}
36596 67802 {}
36596 67815 {}
36596 67826 {}
36596 67839 {}
36596 67850 {}
36596 67861 {}
36596 67874 {}
36596 67885 {}
36596 67898 {}
36596 67911 {}
36596 67924 {}
36596 67935 {}
36596 67946 {}
36596 67959 {}
38067 38068 {}
36610 36611 {}
36621 36622 {}
36634 36635 {}
36647 36648 {}
36660 36661 {}
36673 36674 {}
36686 36687 {}
36699 36700 {}
36712 36713 {}
36725 36726 {}
36736 36737 {}
36747 36748 {}
36760 36761 {}
36771 36772 {}
36784 36785 {}
36795 36796 {}
36808 36809 {}
36819 36820 {}
36830 36831 {}
36843 36844 {}
36854 36855 {}
36867 36868 {}
36878 36879 {}
36891 36892 {}
36902 36903 {}
36913 36914 {}
36926 36927 {}
36939 36940 {}
36952 36953 {}
36963 36964 {}
36976 36977 {}
36989 36990 {}
37000 37001 {}
37011 37012 {}
37024 37025 {}
37037 37038 {}
37050 37051 {}
37063 37064 {}
37074 37075 {}
37087 37088 {}
37100 37101 {}
37113 37114 {}
37124 37125 {}
37137 37138 {}
37150 37151 {}
37161 37162 {}
37172 37173 {}
37183 37184 {}
37196 37197 {}
37209 37210 {}
37222 37223 {}
37235 37236 {}
37246 37247 {}
37257 37258 {}
37270 37271 {}
37281 37282 {}
37294 37295 {}
37305 37306 {}
37316 37317 {}
37327 37328 {}
37338 37339 {}
37351 37352 {}
37362 37363 {}
37375 37376 {}
37388 37389 {}
37401 37402 {}
37412 37413 {}
37425 37426 {}
37436 37437 {}
37449 37450 {}
37462 37463 {}
37475 37476 {}
37488 37489 {}
37499 37500 {}
37510 37511 {}
37523 37524 {}
37536 37537 {}
37547 37548 {}
37560 37561 {}
37573 37574 {}
37584 37585 {}
37597 37598 {}
37610 37611 {}
37623 37624 {}
37634 37635 {}
37647 37648 {}
37660 37661 {}
37673 37674 {}
37686 37687 {}
37697 37698 {}
37708 37709 {}
37719 37720 {}
37732 37733 {}
37743 37744 {}
37754 37755 {}
37767 37768 {}
37780 37781 {}
37791 37792 {}
37802 37803 {}
37815 37816 {}
37828 37829 {}
37841 37842 {}
37852 37853 {}
37863 37864 {}
37874 37875 {}
37887 37888 {}
37898 37899 {}
37909 37910 {}
37920 37921 {}
37931 37932 {}
37944 37945 {}
37957 37958 {}
37968 37969 {}
37981 37982 {}
37992 37993 {}
38005 38006 {}
38018 38019 {}
66316 66317 {}
66329 66330 {}
66340 66341 {}
66351 66352 {}
66364 66365 {}
66377 66378 {}
66388 66389 {}
66399 66400 {}
66410 66411 {}
66423 66424 {}
66434 66435 {}
66447 66448 {}
66460 66461 {}
66471 66472 {}
66482 66483 {}
66495 66496 {}
66508 66509 {}
66519 66520 {}
66530 66531 {}
66541 66542 {}
66552 66553 {}
66563 66564 {}
66576 66577 {}
66589 66590 {}
66602 66603 {}
66615 66616 {}
66628 66629 {}
66639 66640 {}
66652 66653 {}
66665 66666 {}
66676 66677 {}
66689 66690 {}
66700 66701 {}
66713 66714 {}
66726 66727 {}
66737 66738 {}
66750 66751 {}
66761 66762 {}
66774 66775 {}
66785 66786 {}
66798 66799 {}
66811 66812 {}
66822 66823 {}
66833 66834 {}
66846 66847 {}
66859 66860 {}
66870 66871 {}
66883 66884 {}
66896 66897 {}
66909 66910 {}
66922 66923 {}
66933 66934 {}
66944 66945 {}
66955 66956 {}
66966 66967 {}
66977 66978 {}
66990 66991 {}
67003 67004 {}
67016 67017 {}
67029 67030 {}
67042 67043 {}
67055 67056 {}
67066 67067 {}
67077 67078 {}
67088 67089 {}
67099 67100 {}
67110 67111 {}
67123 67124 {}
67136 67137 {}
67147 67148 {}
67158 67159 {}
67169 67170 {}
67182 67183 {}
67193 67194 {}
67204 67205 {}
67215 67216 {}
67228 67229 {}
67239 67240 {}
67252 67253 {}
67265 67266 {}
67276 67277 {}
67289 67290 {}
67300 67301 {}
67313 67314 {}
67324 67325 {}
67335 67336 {}
67346 67347 {}
67357 67358 {}
67368 67369 {}
67381 67382 {}
67394 67395 {}
67405 67406 {}
67418 67419 {}
67431 67432 {}
67442 67443 {}
67453 67454 {}
67466 67467 {}
67479 67480 {}
67492 67493 {}
67505 67506 {}
67518 67519 {}
67531 67532 {}
67544 67545 {}
67557 67558 {}
67568 67569 {}
67579 67580 {}
67592 67593 {}
67603 67604 {}
67614 67615 {}
67627 67628 {}
67638 67639 {}
67651 67652 {}
67662 67663 {}
67673 67674 {}
67686 67687 {}
67699 67700 {}
67712 67713 {}
67723 67724 {}
67734 67735 {}
67745 67746 {}
67756 67757 {}
67769 67770 {}
67780 67781 {}
67791 67792 {}
67802 67803 {}
67815 67816 {}
67826 67827 {}
67839 67840 {}
67850 67851 {}
67861 67862 {}
67874 67875 {}
67885 67886 {}
67898 67899 {}
67911 67912 {}
67924 67925 {}
67935 67936 {}
67946 67947 {}
67959 67960 {}
36598 36599 {}
36606 36608 {}
36604 36607 {}
36607 36609 {}
36609 36610 {}
36611 36612 {}
36617 36619 {}
36615 36618 {}
36618 36620 {}
36620 36621 {}
36623 36624 {}
36622 36623 {}
36630 36632 {}
36628 36631 {}
36631 36633 {}
36633 36634 {}
36636 36637 {}
36635 36636 {}
36643 36645 {}
36641 36644 {}
36644 36646 {}
36646 36647 {}
36649 36650 {}
36648 36649 {}
36656 36658 {}
36654 36657 {}
36657 36659 {}
36659 36660 {}
36662 36663 {}
36661 36662 {}
36669 36671 {}
36667 36670 {}
36670 36672 {}
36672 36673 {}
36675 36676 {}
36674 36675 {}
36682 36684 {}
36680 36683 {}
36683 36685 {}
36685 36686 {}
36688 36689 {}
36687 36688 {}
36695 36697 {}
36693 36696 {}
36696 36698 {}
36698 36699 {}
36701 36702 {}
36700 36701 {}
36708 36710 {}
36706 36709 {}
36709 36711 {}
36711 36712 {}
36714 36715 {}
36713 36714 {}
36721 36723 {}
36719 36722 {}
36722 36724 {}
36724 36725 {}
36726 36727 {}
36732 36734 {}
36730 36733 {}
36733 36735 {}
36735 36736 {}
36737 36738 {}
36743 36745 {}
36741 36744 {}
36744 36746 {}
36746 36747 {}
36749 36750 {}
36748 36749 {}
36756 36758 {}
36754 36757 {}
36757 36759 {}
36759 36760 {}
36761 36762 {}
36767 36769 {}
36765 36768 {}
36768 36770 {}
36770 36771 {}
36773 36774 {}
36772 36773 {}
36780 36782 {}
36778 36781 {}
36781 36783 {}
36783 36784 {}
36785 36786 {}
36791 36793 {}
36789 36792 {}
36792 36794 {}
36794 36795 {}
36797 36798 {}
36796 36797 {}
36804 36806 {}
36802 36805 {}
36805 36807 {}
36807 36808 {}
36809 36810 {}
36815 36817 {}
36813 36816 {}
36816 36818 {}
36818 36819 {}
36820 36821 {}
36826 36828 {}
36824 36827 {}
36827 36829 {}
36829 36830 {}
36832 36833 {}
36831 36832 {}
36839 36841 {}
36837 36840 {}
36840 36842 {}
36842 36843 {}
36844 36845 {}
36850 36852 {}
36848 36851 {}
36851 36853 {}
36853 36854 {}
36856 36857 {}
36855 36856 {}
36863 36865 {}
36861 36864 {}
36864 36866 {}
36866 36867 {}
36868 36869 {}
36874 36876 {}
36872 36875 {}
36875 36877 {}
36877 36878 {}
36880 36881 {}
36879 36880 {}
36887 36889 {}
36885 36888 {}
36888 36890 {}
36890 36891 {}
36892 36893 {}
36898 36900 {}
36896 36899 {}
36899 36901 {}
36901 36902 {}
36903 36904 {}
36909 36911 {}
36907 36910 {}
36910 36912 {}
36912 36913 {}
36915 36916 {}
36914 36915 {}
36922 36924 {}
36920 36923 {}
36923 36925 {}
36925 36926 {}
36928 36929 {}
36927 36928 {}
36935 36937 {}
36933 36936 {}
36936 36938 {}
36938 36939 {}
36941 36942 {}
36940 36941 {}
36948 36950 {}
36946 36949 {}
36949 36951 {}
36951 36952 {}
36953 36954 {}
36959 36961 {}
36957 36960 {}
36960 36962 {}
36962 36963 {}
36965 36966 {}
36964 36965 {}
36972 36974 {}
36970 36973 {}
36973 36975 {}
36975 36976 {}
36978 36979 {}
36977 36978 {}
36985 36987 {}
36983 36986 {}
36986 36988 {}
36988 36989 {}
36990 36991 {}
36996 36998 {}
36994 36997 {}
36997 36999 {}
36999 37000 {}
37001 37002 {}
37007 37009 {}
37005 37008 {}
37008 37010 {}
37010 37011 {}
37013 37014 {}
37012 37013 {}
37020 37022 {}
37018 37021 {}
37021 37023 {}
37023 37024 {}
37026 37027 {}
37025 37026 {}
37033 37035 {}
37031 37034 {}
37034 37036 {}
37036 37037 {}
37039 37040 {}
37038 37039 {}
37046 37048 {}
37044 37047 {}
37047 37049 {}
37049 37050 {}
37052 37053 {}
37051 37052 {}
37059 37061 {}
37057 37060 {}
37060 37062 {}
37062 37063 {}
37064 37065 {}
37070 37072 {}
37068 37071 {}
37071 37073 {}
37073 37074 {}
37076 37077 {}
37075 37076 {}
37083 37085 {}
37081 37084 {}
37084 37086 {}
37086 37087 {}
37089 37090 {}
37088 37089 {}
37096 37098 {}
37094 37097 {}
37097 37099 {}
37099 37100 {}
37102 37103 {}
37101 37102 {}
37109 37111 {}
37107 37110 {}
37110 37112 {}
37112 37113 {}
37114 37115 {}
37120 37122 {}
37118 37121 {}
37121 37123 {}
37123 37124 {}
37126 37127 {}
37125 37126 {}
37133 37135 {}
37131 37134 {}
37134 37136 {}
37136 37137 {}
37139 37140 {}
37138 37139 {}
37146 37148 {}
37144 37147 {}
37147 37149 {}
37149 37150 {}
37151 37152 {}
37157 37159 {}
37155 37158 {}
37158 37160 {}
37160 37161 {}
37162 37163 {}
37168 37170 {}
37166 37169 {}
37169 37171 {}
37171 37172 {}
37173 37174 {}
37179 37181 {}
37177 37180 {}
37180 37182 {}
37182 37183 {}
37185 37186 {}
37184 37185 {}
37192 37194 {}
37190 37193 {}
37193 37195 {}
37195 37196 {}
37198 37199 {}
37197 37198 {}
37205 37207 {}
37203 37206 {}
37206 37208 {}
37208 37209 {}
37211 37212 {}
37210 37211 {}
37218 37220 {}
37216 37219 {}
37219 37221 {}
37221 37222 {}
37224 37225 {}
37223 37224 {}
37231 37233 {}
37229 37232 {}
37232 37234 {}
37234 37235 {}
37236 37237 {}
37242 37244 {}
37240 37243 {}
37243 37245 {}
37245 37246 {}
37247 37248 {}
37253 37255 {}
37251 37254 {}
37254 37256 {}
37256 37257 {}
37259 37260 {}
37258 37259 {}
37266 37268 {}
37264 37267 {}
37267 37269 {}
37269 37270 {}
37271 37272 {}
37277 37279 {}
37275 37278 {}
37278 37280 {}
37280 37281 {}
37283 37284 {}
37282 37283 {}
37290 37292 {}
37288 37291 {}
37291 37293 {}
37293 37294 {}
37295 37296 {}
37301 37303 {}
37299 37302 {}
37302 37304 {}
37304 37305 {}
37306 37307 {}
37312 37314 {}
37310 37313 {}
37313 37315 {}
37315 37316 {}
37317 37318 {}
37323 37325 {}
37321 37324 {}
37324 37326 {}
37326 37327 {}
37328 37329 {}
37334 37336 {}
37332 37335 {}
37335 37337 {}
37337 37338 {}
37340 37341 {}
37339 37340 {}
37347 37349 {}
37345 37348 {}
37348 37350 {}
37350 37351 {}
37352 37353 {}
37358 37360 {}
37356 37359 {}
37359 37361 {}
37361 37362 {}
37364 37365 {}
37363 37364 {}
37371 37373 {}
37369 37372 {}
37372 37374 {}
37374 37375 {}
37377 37378 {}
37376 37377 {}
37384 37386 {}
37382 37385 {}
37385 37387 {}
37387 37388 {}
37390 37391 {}
37389 37390 {}
37397 37399 {}
37395 37398 {}
37398 37400 {}
37400 37401 {}
37402 37403 {}
37408 37410 {}
37406 37409 {}
37409 37411 {}
37411 37412 {}
37414 37415 {}
37413 37414 {}
37421 37423 {}
37419 37422 {}
37422 37424 {}
37424 37425 {}
37426 37427 {}
37432 37434 {}
37430 37433 {}
37433 37435 {}
37435 37436 {}
37438 37439 {}
37437 37438 {}
37445 37447 {}
37443 37446 {}
37446 37448 {}
37448 37449 {}
37451 37452 {}
37450 37451 {}
37458 37460 {}
37456 37459 {}
37459 37461 {}
37461 37462 {}
37464 37465 {}
37463 37464 {}
37471 37473 {}
37469 37472 {}
37472 37474 {}
37474 37475 {}
37477 37478 {}
37476 37477 {}
37484 37486 {}
37482 37485 {}
37485 37487 {}
37487 37488 {}
37489 37490 {}
37495 37497 {}
37493 37496 {}
37496 37498 {}
37498 37499 {}
37500 37501 {}
37506 37508 {}
37504 37507 {}
37507 37509 {}
37509 37510 {}
37512 37513 {}
37511 37512 {}
37519 37521 {}
37517 37520 {}
37520 37522 {}
37522 37523 {}
37525 37526 {}
37524 37525 {}
37532 37534 {}
37530 37533 {}
37533 37535 {}
37535 37536 {}
37537 37538 {}
37543 37545 {}
37541 37544 {}
37544 37546 {}
37546 37547 {}
37549 37550 {}
37548 37549 {}
37556 37558 {}
37554 37557 {}
37557 37559 {}
37559 37560 {}
37562 37563 {}
37561 37562 {}
37569 37571 {}
37567 37570 {}
37570 37572 {}
37572 37573 {}
37574 37575 {}
37580 37582 {}
37578 37581 {}
37581 37583 {}
37583 37584 {}
37586 37587 {}
37585 37586 {}
37593 37595 {}
37591 37594 {}
37594 37596 {}
37596 37597 {}
37599 37600 {}
37598 37599 {}
37606 37608 {}
37604 37607 {}
37607 37609 {}
37609 37610 {}
37612 37613 {}
37611 37612 {}
37619 37621 {}
37617 37620 {}
37620 37622 {}
37622 37623 {}
37624 37625 {}
37630 37632 {}
37628 37631 {}
37631 37633 {}
37633 37634 {}
37636 37637 {}
37635 37636 {}
37643 37645 {}
37641 37644 {}
37644 37646 {}
37646 37647 {}
37649 37650 {}
37648 37649 {}
37656 37658 {}
37654 37657 {}
37657 37659 {}
37659 37660 {}
37662 37663 {}
37661 37662 {}
37669 37671 {}
37667 37670 {}
37670 37672 {}
37672 37673 {}
37675 37676 {}
37674 37675 {}
37682 37684 {}
37680 37683 {}
37683 37685 {}
37685 37686 {}
37687 37688 {}
37693 37695 {}
37691 37694 {}
37694 37696 {}
37696 37697 {}
37698 37699 {}
37704 37706 {}
37702 37705 {}
37705 37707 {}
37707 37708 {}
37709 37710 {}
37715 37717 {}
37713 37716 {}
37716 37718 {}
37718 37719 {}
37721 37722 {}
37720 37721 {}
37728 37730 {}
37726 37729 {}
37729 37731 {}
37731 37732 {}
37733 37734 {}
37739 37741 {}
37737 37740 {}
37740 37742 {}
37742 37743 {}
37744 37745 {}
37750 37752 {}
37748 37751 {}
37751 37753 {}
37753 37754 {}
37756 37757 {}
37755 37756 {}
37763 37765 {}
37761 37764 {}
37764 37766 {}
37766 37767 {}
37769 37770 {}
37768 37769 {}
37776 37778 {}
37774 37777 {}
37777 37779 {}
37779 37780 {}
37781 37782 {}
37787 37789 {}
37785 37788 {}
37788 37790 {}
37790 37791 {}
37792 37793 {}
37798 37800 {}
37796 37799 {}
37799 37801 {}
37801 37802 {}
37804 37805 {}
37803 37804 {}
37811 37813 {}
37809 37812 {}
37812 37814 {}
37814 37815 {}
37817 37818 {}
37816 37817 {}
37824 37826 {}
37822 37825 {}
37825 37827 {}
37827 37828 {}
37830 37831 {}
37829 37830 {}
37837 37839 {}
37835 37838 {}
37838 37840 {}
37840 37841 {}
37842 37843 {}
37848 37850 {}
37846 37849 {}
37849 37851 {}
37851 37852 {}
37853 37854 {}
37859 37861 {}
37857 37860 {}
37860 37862 {}
37862 37863 {}
37864 37865 {}
37870 37872 {}
37868 37871 {}
37871 37873 {}
37873 37874 {}
37876 37877 {}
37875 37876 {}
37883 37885 {}
37881 37884 {}
37884 37886 {}
37886 37887 {}
37888 37889 {}
37894 37896 {}
37892 37895 {}
37895 37897 {}
37897 37898 {}
37899 37900 {}
37905 37907 {}
37903 37906 {}
37906 37908 {}
37908 37909 {}
37910 37911 {}
37916 37918 {}
37914 37917 {}
37917 37919 {}
37919 37920 {}
37921 37922 {}
37927 37929 {}
37925 37928 {}
37928 37930 {}
37930 37931 {}
37933 37934 {}
37932 37933 {}
37940 37942 {}
37938 37941 {}
37941 37943 {}
37943 37944 {}
37946 37947 {}
37945 37946 {}
37953 37955 {}
37951 37954 {}
37954 37956 {}
37956 37957 {}
37958 37959 {}
37964 37966 {}
37962 37965 {}
37965 37967 {}
37967 37968 {}
37970 37971 {}
37969 37970 {}
37977 37979 {}
37975 37978 {}
37978 37980 {}
37980 37981 {}
37982 37983 {}
37988 37990 {}
37986 37989 {}
37989 37991 {}
37991 37992 {}
37994 37995 {}
37993 37994 {}
38001 38003 {}
37999 38002 {}
38002 38004 {}
38004 38005 {}
38007 38008 {}
38006 38007 {}
38014 38016 {}
38012 38015 {}
38015 38017 {}
38017 38018 {}
38019 38020 {}
38022 38025 {}
38025 38026 {}
38024 38025 {}
38026 38033 {}
38033 38034 {}
38028 38031 {}
38031 38032 {}
38030 38031 {}
38032 38033 {}
38035 38065 {}
38037 38234 {}
38037 38240 {}
38037 38251 {}
38037 38260 {}
38037 38269 {}
38037 38278 {}
38037 38287 {}
38037 38296 {}
38037 38306 {}
38037 38317 {}
38037 38331 {}
38037 38343 {}
38037 38351 {}
38037 38358 {}
38037 38364 {}
38037 38375 {}
38037 38388 {}
38037 38397 {}
38037 38412 {}
38037 38418 {}
38037 38442 {}
38037 38455 {}
38037 38461 {}
38037 38474 {}
38037 38482 {}
38037 38513 {}
38037 38536 {}
38037 38544 {}
38037 38553 {}
38037 38562 {}
38037 38591 {}
38037 38597 {}
38037 38638 {}
38054 38055 {}
38234 38235 {}
38234 38236 {}
38240 38241 {}
38240 38242 {}
38251 38252 {}
38260 38261 {}
38260 38262 {}
38269 38270 {}
38278 38279 {}
38278 38280 {}
38287 38288 {}
38296 38297 {}
38296 38298 {}
38306 38307 {}
38306 38311 {}
38317 38318 {}
38317 38319 {}
38331 38332 {}
38343 38344 {}
38343 38345 {}
38343 38354 {}
38351 38352 {}
38351 38353 {}
38358 38359 {}
38358 38360 {}
38364 38365 {}
38364 38369 {}
38375 38376 {}
38375 38380 {}
38388 38389 {}
38397 38398 {}
38397 38403 {}
38412 38413 {}
38418 38419 {}
38418 38420 {}
38442 38443 {}
38455 38456 {}
38455 38457 {}
38461 38462 {}
38474 38475 {}
38474 38476 {}
38482 38483 {}
38482 38484 {}
38513 38514 {}
38536 38537 {}
38536 38538 {}
38544 38545 {}
38544 38546 {}
38553 38554 {}
38562 38563 {}
38591 38592 {}
38591 38593 {}
38597 38598 {}
38597 38599 {}
38638 38639 {}
38039 38046 {}
38039 38072 {}
38041 46519 {}
42369 45862 {}
46632 46741 {}
47920 48028 {}
48137 48245 {}
48661 48746 {}
49845 49935 {}
50021 50106 {}
50194 50281 {}
50293 50304 {}
50316 50327 {}
62614 62626 {}
62739 62751 {}
62842 62854 {}
62895 62909 {}
62948 62960 {}
62973 62985 {}
63028 63040 {}
63155 63167 {}
63206 63220 {}
63559 63571 {}
63662 63674 {}
63743 63755 {}
63820 63834 {}
63847 63859 {}
64026 64040 {}
64053 64065 {}
64080 64094 {}
64181 64185 {}
64190 64192 {}
64233 64235 {}
64258 64260 {}
64263 64265 {}
64298 64300 {}
64341 64343 {}
64352 64356 {}
64365 64369 {}
64473 64476 {}
46519 46520 {}
46519 46521 {}
46519 47600 {}
46519 48915 {}
46519 50364 {}
46519 50384 {}
46519 50422 {}
46519 62576 {}
46519 62651 {}
46519 62677 {}
46519 62804 {}
46519 62879 {}
46519 62934 {}
46519 63014 {}
46519 63117 {}
46519 63297 {}
46519 63359 {}
46519 63395 {}
46519 63469 {}
46519 63495 {}
46519 63521 {}
46519 63596 {}
46519 63699 {}
46519 63729 {}
46519 63804 {}
46519 63908 {}
46519 63938 {}
46519 64119 {}
46519 64213 {}
46519 64223 {}
46519 64229 {}
46519 64244 {}
46519 64254 {}
46519 64270 {}
46519 64284 {}
46519 64290 {}
46519 64305 {}
46519 64315 {}
46519 64321 {}
46519 64327 {}
46519 64337 {}
46519 64348 {}
46519 64372 {}
46519 64386 {}
46519 64392 {}
46519 64406 {}
46519 64412 {}
46519 64418 {}
46519 64424 {}
46519 64439 {}
46519 64464 {}
46519 64477 {}
46519 64485 {}
46519 64491 {}
38043 38044 {}
63571 63572 {}
63674 63675 {}
63755 63756 {}
63834 63835 {}
63859 63860 {}
64040 64041 {}
64065 64066 {}
64094 64095 {}
64183 64184 {}
64343 64344 {}
64354 64355 {}
64367 64368 {}
38045 38046 {}
38049 38965 {}
38049 38975 {}
38049 38982 {}
38049 38992 {}
38049 38999 {}
38049 39010 {}
38049 39018 {}
38049 39028 {}
38049 39037 {}
38049 39047 {}
38049 39056 {}
38049 39067 {}
38049 39075 {}
38049 39084 {}
38049 39092 {}
38049 39103 {}
38049 39111 {}
38049 39121 {}
38049 39130 {}
38049 39138 {}
38049 39147 {}
38049 39154 {}
38049 39161 {}
38049 39252 {}
38049 40638 {}
38049 40662 {}
38049 40770 {}
38049 40777 {}
38049 40790 {}
38049 40797 {}
38049 40809 {}
38049 40816 {}
38049 40830 {}
38049 40834 {}
38049 40887 {}
38049 40896 {}
38049 40904 {}
38049 40914 {}
38049 40922 {}
38049 40932 {}
38049 41316 {}
38049 41354 {}
38049 41362 {}
38049 41375 {}
38049 41382 {}
38049 41397 {}
38049 41403 {}
38049 41417 {}
38049 41424 {}
38049 41439 {}
38049 41445 {}
38049 41459 {}
38049 41466 {}
38049 41478 {}
38049 41484 {}
38049 41488 {}
38049 41505 {}
38049 41512 {}
38049 41526 {}
38049 41530 {}
38049 41547 {}
38049 41554 {}
38049 41565 {}
38049 41572 {}
38049 41586 {}
38049 41593 {}
38049 41604 {}
38049 41611 {}
38049 41622 {}
38049 41629 {}
38049 41833 {}
38049 41837 {}
38049 42316 {}
38049 42320 {}
38049 42467 {}
38049 42476 {}
38049 42484 {}
38049 42494 {}
38049 42500 {}
38049 42512 {}
38049 42520 {}
38049 42531 {}
38049 42539 {}
38049 42549 {}
38049 42558 {}
38049 42569 {}
38049 42576 {}
38049 42586 {}
38049 42594 {}
38049 42602 {}
38049 42611 {}
38049 42621 {}
38049 42632 {}
38049 42638 {}
38049 42648 {}
38049 42655 {}
38049 42663 {}
38049 42755 {}
38049 44131 {}
38049 44155 {}
38049 44261 {}
38049 44268 {}
38049 44282 {}
38049 44289 {}
38049 44301 {}
38049 44308 {}
38049 44322 {}
38049 44327 {}
38049 44378 {}
38049 44388 {}
38049 44396 {}
38049 44406 {}
38049 44414 {}
38049 44424 {}
38049 44809 {}
38049 44846 {}
38049 44853 {}
38049 44867 {}
38049 44874 {}
38049 44888 {}
38049 44895 {}
38049 44909 {}
38049 44916 {}
38049 44931 {}
38049 44937 {}
38049 44951 {}
38049 44958 {}
38049 44970 {}
38049 44976 {}
38049 44982 {}
38049 44997 {}
38049 45004 {}
38049 45018 {}
38049 45022 {}
38049 45039 {}
38049 45045 {}
38049 45056 {}
38049 45063 {}
38049 45077 {}
38049 45084 {}
38049 45095 {}
38049 45102 {}
38049 45113 {}
38049 45120 {}
38049 45324 {}
38049 45328 {}
38049 45807 {}
38049 45811 {}
38049 45921 {}
38049 45925 {}
38049 46029 {}
38049 46033 {}
38049 46082 {}
38049 46137 {}
38049 46141 {}
38049 46245 {}
38049 46249 {}
38049 46302 {}
38049 46361 {}
38049 46365 {}
38049 46467 {}
38049 46471 {}
38049 46518 {}
38049 46579 {}
38049 46583 {}
38049 46687 {}
38049 46691 {}
38049 46800 {}
38049 46804 {}
38049 46908 {}
38049 46912 {}
38049 46959 {}
38049 47016 {}
38049 47020 {}
38049 47069 {}
38049 47122 {}
38049 47126 {}
38049 47236 {}
38049 47240 {}
38049 47340 {}
38049 47344 {}
38049 47391 {}
38049 47447 {}
38049 47451 {}
38049 47546 {}
38049 47550 {}
38049 47599 {}
38049 47657 {}
38049 47661 {}
38049 47760 {}
38049 47764 {}
38049 47811 {}
38049 47863 {}
38049 47867 {}
38049 47970 {}
38049 47974 {}
38049 48084 {}
38049 48088 {}
38049 48191 {}
38049 48195 {}
38049 48409 {}
38049 48493 {}
38049 48914 {}
38049 49002 {}
38049 49168 {}
38049 49418 {}
38049 49586 {}
38049 49672 {}
38049 50337 {}
38049 50363 {}
38049 50383 {}
38049 50395 {}
38049 50421 {}
38049 50433 {}
38049 50541 {}
38049 50551 {}
38049 50559 {}
38049 50569 {}
38049 50575 {}
38049 50587 {}
38049 50595 {}
38049 50605 {}
38049 50613 {}
38049 50623 {}
38049 50631 {}
38049 50641 {}
38049 50649 {}
38049 50659 {}
38049 50667 {}
38049 50677 {}
38049 50685 {}
38049 50695 {}
38049 50705 {}
38049 50712 {}
38049 50722 {}
38049 50729 {}
38049 50736 {}
38049 50827 {}
38049 52219 {}
38049 52243 {}
38049 52350 {}
38049 52357 {}
38049 52371 {}
38049 52378 {}
38049 52390 {}
38049 52397 {}
38049 52411 {}
38049 52415 {}
38049 52467 {}
38049 52477 {}
38049 52485 {}
38049 52495 {}
38049 52503 {}
38049 52513 {}
38049 52897 {}
38049 52933 {}
38049 52940 {}
38049 52954 {}
38049 52958 {}
38049 52975 {}
38049 52982 {}
38049 52996 {}
38049 53000 {}
38049 53017 {}
38049 53024 {}
38049 53038 {}
38049 53045 {}
38049 53057 {}
38049 53062 {}
38049 53066 {}
38049 53083 {}
38049 53090 {}
38049 53104 {}
38049 53108 {}
38049 53125 {}
38049 53132 {}
38049 53143 {}
38049 53150 {}
38049 53164 {}
38049 53171 {}
38049 53182 {}
38049 53189 {}
38049 53200 {}
38049 53207 {}
38049 53411 {}
38049 53415 {}
38049 53894 {}
38049 53898 {}
38049 53945 {}
38049 54009 {}
38049 54013 {}
38049 54062 {}
38049 54120 {}
38049 54124 {}
38049 54177 {}
38049 54240 {}
38049 54244 {}
38049 54291 {}
38049 54351 {}
38049 54355 {}
38049 54404 {}
38049 54466 {}
38049 54470 {}
38049 54519 {}
38049 54577 {}
38049 54581 {}
38049 54634 {}
38049 54696 {}
38049 54700 {}
38049 54747 {}
38049 54804 {}
38049 54808 {}
38049 54857 {}
38049 54916 {}
38049 54920 {}
38049 54967 {}
38049 55022 {}
38049 55026 {}
38049 55079 {}
38049 55138 {}
38049 55142 {}
38049 55191 {}
38049 55278 {}
38049 55365 {}
38049 55454 {}
38049 55543 {}
38049 55631 {}
38049 55719 {}
38049 55808 {}
38049 55897 {}
38049 55986 {}
38049 56078 {}
38049 56167 {}
38049 56260 {}
38049 56273 {}
38049 56285 {}
38049 56299 {}
38049 56312 {}
38049 56325 {}
38049 56338 {}
38049 56351 {}
38049 56364 {}
38049 56467 {}
38049 56477 {}
38049 56485 {}
38049 56495 {}
38049 56501 {}
38049 56513 {}
38049 56521 {}
38049 56531 {}
38049 56539 {}
38049 56549 {}
38049 56557 {}
38049 56567 {}
38049 56575 {}
38049 56585 {}
38049 56593 {}
38049 56603 {}
38049 56611 {}
38049 56621 {}
38049 56631 {}
38049 56638 {}
38049 56648 {}
38049 56655 {}
38049 56662 {}
38049 56753 {}
38049 58145 {}
38049 58169 {}
38049 58276 {}
38049 58283 {}
38049 58297 {}
38049 58304 {}
38049 58316 {}
38049 58323 {}
38049 58337 {}
38049 58341 {}
38049 58393 {}
38049 58403 {}
38049 58411 {}
38049 58421 {}
38049 58429 {}
38049 58439 {}
38049 58823 {}
38049 58861 {}
38049 58868 {}
38049 58882 {}
38049 58886 {}
38049 58903 {}
38049 58910 {}
38049 58924 {}
38049 58928 {}
38049 58945 {}
38049 58952 {}
38049 58966 {}
38049 58973 {}
38049 58987 {}
38049 58992 {}
38049 58996 {}
38049 59013 {}
38049 59020 {}
38049 59034 {}
38049 59038 {}
38049 59055 {}
38049 59062 {}
38049 59073 {}
38049 59080 {}
38049 59094 {}
38049 59101 {}
38049 59112 {}
38049 59119 {}
38049 59130 {}
38049 59137 {}
38049 59340 {}
38049 59344 {}
38049 59823 {}
38049 59827 {}
38049 59874 {}
38049 59937 {}
38049 59941 {}
38049 59990 {}
38049 60048 {}
38049 60052 {}
38049 60105 {}
38049 60169 {}
38049 60173 {}
38049 60220 {}
38049 60280 {}
38049 60284 {}
38049 60333 {}
38049 60397 {}
38049 60401 {}
38049 60450 {}
38049 60508 {}
38049 60512 {}
38049 60565 {}
38049 60628 {}
38049 60632 {}
38049 60679 {}
38049 60737 {}
38049 60741 {}
38049 60790 {}
38049 60851 {}
38049 60855 {}
38049 60902 {}
38049 60957 {}
38049 60961 {}
38049 61014 {}
38049 61074 {}
38049 61078 {}
38049 61127 {}
38049 61215 {}
38049 61303 {}
38049 61395 {}
38049 61485 {}
38049 61573 {}
38049 61663 {}
38049 61751 {}
38049 61841 {}
38049 61933 {}
38049 62019 {}
38049 62109 {}
38049 62201 {}
38049 62217 {}
38049 62229 {}
38049 62245 {}
38049 62257 {}
38049 62272 {}
38049 62285 {}
38049 62301 {}
38049 62315 {}
38049 62322 {}
38049 62327 {}
38049 62334 {}
38049 62343 {}
38049 62350 {}
38049 62356 {}
38049 62362 {}
38049 62369 {}
38049 62377 {}
38049 62383 {}
38049 62392 {}
38049 62398 {}
38049 62404 {}
38049 62412 {}
38049 62418 {}
38049 62427 {}
38049 62432 {}
38049 62439 {}
38049 62448 {}
38049 62454 {}
38049 62462 {}
38049 62468 {}
38049 62474 {}
38049 62481 {}
38049 62489 {}
38049 62495 {}
38049 62504 {}
38049 62510 {}
38049 62517 {}
38049 62523 {}
38049 62531 {}
38049 62537 {}
38049 62575 {}
38049 62650 {}
38049 62676 {}
38049 62691 {}
38049 62726 {}
38049 62764 {}
38049 62803 {}
38049 62818 {}
38049 62878 {}
38049 62933 {}
38049 63013 {}
38049 63053 {}
38049 63088 {}
38049 63116 {}
38049 63142 {}
38049 63191 {}
38049 63244 {}
38049 63259 {}
38049 63296 {}
38049 63313 {}
38049 63358 {}
38049 63394 {}
38049 63444 {}
38049 63468 {}
38049 63494 {}
38049 63520 {}
38049 63535 {}
38049 63595 {}
38049 63625 {}
38049 63649 {}
38049 63698 {}
38049 63728 {}
38049 63768 {}
38049 63803 {}
38049 63872 {}
38049 63907 {}
38049 63937 {}
38049 63952 {}
38049 64000 {}
38049 64118 {}
38049 64135 {}
38049 64165 {}
38049 64187 {}
38049 64195 {}
38049 64200 {}
38049 64203 {}
38049 64207 {}
38049 64212 {}
38049 64217 {}
38049 64222 {}
38049 64228 {}
38049 64238 {}
38049 64243 {}
38049 64249 {}
38049 64253 {}
38049 64269 {}
38049 64274 {}
38049 64278 {}
38049 64283 {}
38049 64289 {}
38049 64295 {}
38049 64304 {}
38049 64309 {}
38049 64314 {}
38049 64320 {}
38049 64326 {}
38049 64331 {}
38049 64336 {}
38049 64347 {}
38049 64358 {}
38049 64362 {}
38049 64371 {}
38049 64376 {}
38049 64380 {}
38049 64385 {}
38049 64391 {}
38049 64397 {}
38049 64400 {}
38049 64405 {}
38049 64411 {}
38049 64417 {}
38049 64423 {}
38049 64429 {}
38049 64438 {}
38049 64443 {}
38049 64447 {}
38049 64452 {}
38049 64455 {}
38049 64463 {}
38049 64468 {}
38049 64479 {}
38049 64484 {}
38049 64490 {}
38049 64495 {}
38049 64502 {}
38049 64515 {}
38049 64528 {}
38049 64542 {}
38049 64555 {}
38049 64568 {}
38049 64581 {}
38049 64594 {}
38049 64613 {}
38049 64626 {}
38049 64634 {}
38049 64647 {}
38049 64660 {}
38049 64673 {}
38049 64691 {}
38049 64699 {}
38049 64712 {}
38049 64725 {}
38049 64743 {}
38049 64756 {}
38049 64765 {}
38049 64778 {}
38049 64791 {}
38049 64805 {}
38049 64819 {}
38049 64832 {}
38049 64846 {}
38049 64865 {}
38049 64873 {}
38049 64886 {}
38049 64899 {}
38049 64913 {}
38049 64928 {}
38049 64938 {}
38049 64943 {}
38049 64953 {}
38049 64968 {}
38049 64973 {}
38049 64983 {}
38049 64993 {}
38049 65009 {}
38049 65014 {}
38049 65024 {}
38049 65039 {}
38049 65044 {}
38049 65054 {}
38049 65070 {}
38049 65075 {}
38049 65090 {}
38049 65095 {}
38049 65105 {}
38049 65115 {}
38049 65125 {}
38049 65135 {}
38049 65145 {}
38049 65155 {}
38049 65166 {}
38049 65176 {}
38049 65186 {}
38049 65197 {}
38049 65212 {}
38049 65217 {}
38049 65227 {}
38049 65243 {}
38049 65248 {}
38049 65258 {}
38049 65268 {}
38049 65278 {}
38049 65288 {}
38049 65298 {}
38049 65308 {}
38049 65318 {}
38049 65328 {}
38049 65338 {}
38049 65353 {}
38049 65358 {}
38049 65368 {}
38049 65378 {}
38049 65388 {}
38049 65398 {}
38049 65408 {}
38049 65423 {}
38049 65428 {}
38049 65438 {}
38049 65448 {}
38049 65463 {}
38049 65473 {}
38049 65478 {}
38049 65489 {}
38049 65505 {}
38049 65510 {}
38049 65526 {}
38049 65536 {}
38049 65546 {}
38049 65551 {}
38049 65567 {}
38049 65572 {}
38049 65581 {}
38049 65586 {}
38049 65595 {}
38049 65602 {}
38049 65609 {}
38049 65614 {}
38049 65621 {}
38049 65630 {}
38049 65635 {}
38049 65642 {}
38049 65649 {}
38049 65656 {}
38049 65663 {}
38049 65670 {}
38049 65677 {}
38049 65684 {}
38049 65691 {}
38049 65698 {}
38049 65707 {}
38049 65714 {}
38049 65721 {}
38049 65726 {}
38049 65733 {}
38049 65740 {}
38049 65749 {}
38049 65756 {}
38049 65761 {}
38049 65768 {}
38049 65777 {}
38049 65784 {}
38049 65791 {}
38052 38053 {}
62556 62557 {}
62602 62603 {}
63375 63376 {}
63421 63422 {}
63988 63989 {}
46082 46083 {}
46302 46303 {}
46518 46521 {}
46959 46960 {}
47069 47178 {}
47391 47392 {}
47599 47600 {}
47811 47812 {}
48409 48410 {}
48493 48576 {}
48914 48915 {}
49002 49085 {}
49168 49251 {}
49418 49419 {}
49586 49587 {}
49672 49755 {}
50337 50346 {}
50363 50364 {}
50383 50384 {}
50395 50404 {}
50421 50422 {}
50433 50442 {}
53945 53950 {}
54062 54063 {}
54177 54181 {}
54291 54292 {}
54404 54405 {}
54519 54520 {}
54634 54635 {}
54747 54748 {}
54857 54860 {}
54967 54968 {}
55079 55082 {}
55191 55192 {}
55278 55279 {}
55365 55368 {}
55454 55457 {}
55543 55546 {}
55631 55635 {}
55719 55722 {}
55808 55811 {}
55897 55898 {}
55986 55987 {}
56078 56079 {}
56167 56170 {}
56260 56263 {}
56273 56276 {}
56285 56289 {}
56299 56302 {}
56312 56313 {}
56325 56326 {}
56338 56339 {}
56351 56352 {}
56364 56365 {}
59874 59876 {}
59990 59992 {}
60105 60110 {}
60220 60222 {}
60333 60338 {}
60450 60452 {}
60565 60570 {}
60679 60684 {}
60790 60795 {}
60902 60904 {}
61014 61019 {}
61127 61132 {}
61215 61220 {}
61303 61308 {}
61395 61398 {}
61485 61486 {}
61573 61578 {}
61663 61664 {}
61751 61756 {}
61841 61846 {}
61933 61934 {}
62019 62024 {}
62109 62114 {}
62201 62206 {}
62217 62218 {}
62229 62234 {}
62245 62246 {}
62257 62262 {}
62272 62274 {}
62285 62288 {}
62301 62302 {}
62315 62316 {}
62322 62323 {}
62327 62332 {}
62334 62337 {}
62343 62344 {}
62350 62351 {}
62356 62358 {}
62362 62367 {}
62369 62374 {}
62377 62379 {}
62383 62388 {}
62392 62393 {}
62398 62400 {}
62404 62409 {}
62412 62414 {}
62418 62423 {}
62427 62428 {}
62432 62435 {}
62439 62444 {}
62448 62449 {}
62454 62456 {}
62462 62463 {}
62468 62470 {}
62474 62479 {}
62481 62484 {}
62489 62491 {}
62495 62500 {}
62504 62505 {}
62510 62512 {}
62517 62521 {}
62523 62528 {}
62531 62533 {}
62537 62542 {}
62575 62576 {}
62650 62651 {}
62676 62679 {}
62691 62703 {}
62726 62727 {}
62764 62776 {}
62803 62804 {}
62818 62830 {}
62878 62879 {}
62933 62934 {}
63013 63014 {}
63053 63065 {}
63088 63089 {}
63116 63117 {}
63142 63143 {}
63191 63192 {}
63244 63245 {}
63259 63273 {}
63296 63297 {}
63313 63327 {}
63358 63359 {}
63394 63395 {}
63444 63445 {}
63468 63469 {}
63494 63495 {}
63520 63521 {}
63535 63547 {}
63595 63596 {}
63625 63626 {}
63649 63650 {}
63698 63699 {}
63728 63729 {}
63768 63780 {}
63803 63804 {}
63872 63884 {}
63907 63908 {}
63937 63938 {}
63952 63964 {}
64000 64012 {}
64118 64119 {}
64135 64149 {}
64165 64179 {}
64187 64188 {}
64195 64197 {}
64200 64201 {}
64203 64205 {}
64207 64209 {}
64212 64213 {}
64217 64219 {}
64222 64223 {}
64228 64231 {}
64238 64240 {}
64243 64244 {}
64249 64250 {}
64253 64256 {}
64269 64270 {}
64274 64276 {}
64278 64280 {}
64283 64284 {}
64289 64290 {}
64295 64296 {}
64304 64305 {}
64309 64311 {}
64314 64315 {}
64320 64321 {}
64326 64327 {}
64331 64333 {}
64336 64337 {}
64347 64350 {}
64358 64359 {}
64362 64363 {}
64371 64372 {}
64376 64378 {}
64380 64382 {}
64385 64388 {}
64391 64392 {}
64397 64398 {}
64400 64402 {}
64405 64406 {}
64411 64412 {}
64417 64420 {}
64423 64426 {}
64429 64430 {}
64438 64441 {}
64443 64445 {}
64447 64449 {}
64452 64453 {}
64455 64457 {}
64463 64464 {}
64468 64470 {}
64479 64481 {}
64484 64487 {}
64490 64491 {}
64495 64497 {}
64502 64510 {}
64515 64523 {}
64528 64536 {}
64542 64550 {}
64555 64563 {}
64568 64576 {}
64581 64589 {}
64594 64602 {}
64613 64616 {}
64626 64627 {}
64634 64642 {}
64647 64655 {}
64660 64668 {}
64673 64681 {}
64691 64692 {}
64699 64707 {}
64712 64720 {}
64725 64733 {}
64743 64744 {}
64756 64757 {}
64765 64773 {}
64778 64786 {}
64791 64799 {}
64805 64814 {}
64819 64827 {}
64832 64840 {}
64846 64855 {}
64865 64866 {}
64873 64881 {}
64886 64894 {}
64899 64906 {}
64913 64921 {}
64928 64929 {}
64938 64941 {}
64943 64951 {}
64953 64961 {}
64968 64969 {}
64973 64981 {}
64983 64991 {}
64993 65001 {}
65009 65010 {}
65014 65022 {}
65024 65032 {}
65039 65042 {}
65044 65052 {}
65054 65062 {}
65070 65071 {}
65075 65083 {}
65090 65093 {}
65095 65103 {}
65105 65113 {}
65115 65123 {}
65125 65133 {}
65135 65143 {}
65145 65153 {}
65155 65164 {}
65166 65174 {}
65176 65184 {}
65186 65195 {}
65197 65205 {}
65212 65213 {}
65217 65225 {}
65227 65236 {}
65243 65244 {}
65248 65256 {}
65258 65266 {}
65268 65276 {}
65278 65286 {}
65288 65296 {}
65298 65306 {}
65308 65316 {}
65318 65326 {}
65328 65336 {}
65338 65346 {}
65353 65354 {}
65358 65366 {}
65368 65376 {}
65378 65386 {}
65388 65396 {}
65398 65406 {}
65408 65416 {}
65423 65424 {}
65428 65436 {}
65438 65446 {}
65448 65456 {}
65463 65464 {}
65473 65474 {}
65478 65487 {}
65489 65496 {}
65505 65508 {}
65510 65519 {}
65526 65527 {}
65536 65537 {}
65546 65547 {}
65551 65560 {}
65567 65568 {}
65572 65577 {}
65581 65584 {}
65586 65591 {}
65595 65596 {}
65602 65605 {}
65609 65612 {}
65614 65619 {}
65621 65626 {}
65630 65631 {}
65635 65640 {}
65642 65647 {}
65649 65654 {}
65656 65661 {}
65663 65668 {}
65670 65675 {}
65677 65682 {}
65684 65689 {}
65691 65696 {}
65698 65703 {}
65707 65708 {}
65714 65715 {}
65721 65724 {}
65726 65731 {}
65733 65738 {}
65740 65745 {}
65749 65752 {}
65756 65759 {}
65761 65766 {}
65768 65773 {}
65777 65780 {}
65784 65787 {}
65791 65794 {}
38051 38052 {}
38051 38076 {}
38053 38054 {}
38057 38060 {}
38060 38061 {}
38059 38060 {}
38061 38062 {}
38063 38066 {}
38066 38067 {}
38069 38070 {}
38068 38069 {}
38075 38229 {}
38075 38247 {}
38075 38265 {}
38075 38283 {}
38075 38301 {}
38075 38324 {}
38075 38336 {}
38075 38363 {}
38075 38374 {}
38075 38386 {}
38075 38396 {}
38075 38405 {}
38075 38414 {}
38075 38450 {}
38075 38468 {}
38075 38531 {}
38075 38549 {}
38075 38586 {}
38144 38145 {}
38144 38237 {}
38245 38246 {}
38245 38249 {}
38263 38264 {}
38263 38267 {}
38281 38282 {}
38281 38285 {}
38299 38300 {}
38299 38303 {}
38322 38323 {}
38322 38326 {}
38335 38339 {}
38335 38357 {}
38446 38447 {}
38446 38458 {}
38446 38467 {}
38465 38467 {}
38529 38530 {}
38529 38533 {}
38547 38548 {}
38547 38551 {}
38582 38583 {}
38582 38594 {}
38229 38230 {}
38229 38237 {}
38247 38248 {}
38247 38249 {}
38265 38266 {}
38265 38267 {}
38283 38284 {}
38283 38285 {}
38301 38302 {}
38301 38303 {}
38324 38325 {}
38324 38326 {}
38336 38337 {}
38363 38364 {}
38374 38375 {}
38386 38390 {}
38396 38397 {}
38405 38406 {}
38450 38451 {}
38450 38458 {}
38450 38470 {}
38468 38470 {}
38531 38532 {}
38531 38533 {}
38549 38550 {}
38549 38551 {}
38586 38587 {}
38586 38594 {}
38079 38082 {}
38082 38083 {}
38081 38085 {}
38087 38088 {}
38083 38084 {}
38086 38092 {}
38092 38093 {}
38089 38090 {}
38093 38094 {}
38096 38097 {}
38096 38190 {}
38190 38191 {}
38190 38348 {}
38098 38099 {}
38346 38347 {}
38100 38103 {}
38103 38104 {}
38103 38448 {}
38102 38103 {}
38102 38194 {}
38194 38195 {}
38194 38452 {}
38104 38105 {}
38104 38113 {}
38448 38449 {}
38113 38114 {}
38113 38557 {}
38106 38466 {}
38108 38111 {}
38108 38471 {}
38111 38112 {}
38471 38472 {}
38471 38500 {}
38110 38111 {}
38112 38113 {}
38112 38198 {}
38198 38199 {}
38198 38559 {}
38114 38115 {}
38557 38558 {}
38116 38117 {}
38118 38119 {}
38539 38540 {}
38120 38121 {}
38122 38123 {}
38312 38313 {}
38124 38125 {}
38126 38127 {}
38291 38292 {}
38128 38129 {}
38130 38131 {}
38273 38274 {}
38132 38133 {}
38134 38135 {}
38584 38585 {}
38136 38137 {}
38138 38139 {}
38255 38256 {}
38140 38141 {}
38142 38143 {}
38146 38147 {}
38145 38147 {}
38237 38238 {}
38237 38629 {}
38147 38233 {}
38233 38234 {}
38186 38187 {}
38186 38355 {}
38189 38190 {}
38338 38339 {}
38180 38181 {}
38180 38361 {}
38183 38184 {}
38183 38188 {}
38152 38153 {}
38152 38372 {}
38177 38178 {}
38177 38182 {}
38153 38176 {}
38372 38373 {}
38176 38177 {}
38176 38373 {}
38173 38175 {}
38174 38176 {}
38381 38382 {}
38381 38383 {}
38172 38174 {}
38175 38372 {}
38167 38168 {}
38167 38394 {}
38170 38171 {}
38170 38172 {}
38170 38384 {}
38161 38162 {}
38161 38404 {}
38164 38165 {}
38164 38169 {}
38159 38163 {}
38404 38405 {}
38163 38164 {}
38163 38407 {}
38162 38163 {}
38407 38408 {}
38407 38411 {}
38165 38394 {}
38169 38170 {}
38169 38395 {}
38394 38395 {}
38168 38169 {}
38395 38396 {}
38171 38173 {}
38171 38383 {}
38384 38385 {}
38383 38385 {}
38373 38374 {}
38178 38361 {}
38182 38183 {}
38182 38362 {}
38361 38362 {}
38181 38182 {}
38362 38363 {}
38184 38355 {}
38188 38189 {}
38188 38336 {}
38355 38356 {}
38187 38188 {}
38191 38192 {}
38348 38349 {}
38193 38194 {}
38195 38196 {}
38195 38198 {}
38452 38453 {}
38197 38469 {}
38199 38200 {}
38559 38560 {}
38201 38202 {}
38203 38204 {}
38541 38542 {}
38205 38206 {}
38207 38208 {}
38314 38315 {}
38209 38210 {}
38211 38212 {}
38293 38294 {}
38213 38214 {}
38215 38216 {}
38275 38276 {}
38217 38218 {}
38219 38220 {}
38588 38589 {}
38221 38222 {}
38223 38224 {}
38257 38258 {}
38225 38226 {}
38227 38228 {}
38231 38232 {}
38230 38232 {}
38232 38233 {}
38235 38636 {}
38636 38662 {}
38243 38244 {}
38238 38239 {}
38629 38630 {}
38241 38630 {}
38630 38631 {}
38244 38635 {}
38635 38666 {}
38246 38256 {}
38249 38250 {}
38249 38253 {}
38256 38259 {}
38248 38258 {}
38258 38259 {}
38250 38251 {}
38253 38254 {}
38253 38866 {}
38252 38253 {}
38252 38621 {}
38621 38658 {}
38621 38866 {}
38866 38867 {}
38606 38607 {}
38259 38260 {}
38261 38634 {}
38634 38658 {}
38604 38605 {}
38264 38274 {}
38267 38268 {}
38267 38271 {}
38274 38277 {}
38266 38276 {}
38276 38277 {}
38268 38269 {}
38271 38272 {}
38271 38864 {}
38270 38271 {}
38270 38613 {}
38613 38614 {}
38613 38864 {}
38864 38865 {}
38580 38581 {}
38277 38278 {}
38279 38633 {}
38633 38652 {}
38578 38579 {}
38282 38292 {}
38285 38286 {}
38285 38289 {}
38292 38295 {}
38284 38294 {}
38294 38295 {}
38286 38287 {}
38289 38290 {}
38289 38862 {}
38288 38289 {}
38288 38620 {}
38620 38648 {}
38620 38862 {}
38862 38863 {}
38576 38577 {}
38295 38296 {}
38297 38616 {}
38616 38618 {}
38574 38575 {}
38300 38313 {}
38303 38304 {}
38303 38308 {}
38313 38316 {}
38302 38315 {}
38315 38316 {}
38304 38305 {}
38308 38309 {}
38307 38309 {}
38309 38310 {}
38310 38617 {}
38617 38618 {}
38320 38321 {}
38316 38317 {}
38318 38626 {}
38626 38646 {}
38321 38572 {}
38572 38573 {}
38323 38347 {}
38326 38327 {}
38326 38330 {}
38347 38350 {}
38325 38349 {}
38349 38350 {}
38327 38328 {}
38330 38331 {}
38329 38440 {}
38333 38334 {}
38441 38442 {}
38332 38333 {}
38332 38510 {}
38510 38518 {}
38489 38490 {}
38339 38340 {}
38339 38431 {}
38357 38358 {}
38337 38338 {}
38337 38356 {}
38356 38357 {}
38340 38341 {}
38431 38432 {}
38342 38856 {}
38512 38513 {}
38344 38432 {}
38432 38433 {}
38495 38496 {}
38350 38351 {}
38352 38511 {}
38511 38516 {}
38436 38437 {}
38359 38435 {}
38435 38437 {}
38438 38439 {}
38365 38367 {}
38367 38368 {}
38368 38370 {}
38370 38430 {}
38429 38430 {}
38430 38436 {}
38377 38378 {}
38376 38377 {}
38378 38379 {}
38379 38428 {}
38428 38429 {}
38427 38428 {}
38382 38384 {}
38385 38386 {}
38390 38391 {}
38390 38393 {}
38389 38390 {}
38391 38392 {}
38392 38426 {}
38426 38427 {}
38425 38426 {}
38398 38400 {}
38400 38401 {}
38401 38402 {}
38402 38424 {}
38424 38425 {}
38423 38424 {}
38406 38407 {}
38408 38409 {}
38411 38412 {}
38409 38422 {}
38422 38423 {}
38421 38422 {}
38415 38417 {}
38416 38420 {}
38416 38855 {}
38420 38421 {}
38419 38855 {}
38433 38434 {}
38434 38439 {}
38439 38487 {}
38437 38438 {}
38487 38488 {}
38444 38445 {}
38443 38444 {}
38443 38509 {}
38509 38520 {}
38491 38492 {}
38447 38449 {}
38458 38459 {}
38458 38460 {}
38458 38463 {}
38467 38478 {}
38449 38454 {}
38454 38455 {}
38451 38453 {}
38470 38480 {}
38453 38454 {}
38456 38506 {}
38506 38507 {}
38459 38471 {}
38460 38461 {}
38463 38464 {}
38463 38858 {}
38462 38463 {}
38462 38505 {}
38505 38507 {}
38505 38858 {}
38858 38859 {}
38477 38478 {}
38478 38481 {}
38479 38480 {}
38480 38481 {}
38472 38473 {}
38500 38501 {}
38475 38501 {}
38501 38502 {}
38485 38486 {}
38481 38482 {}
38483 38504 {}
38504 38524 {}
38486 38499 {}
38499 38528 {}
38488 38493 {}
38493 38494 {}
38490 38491 {}
38492 38493 {}
38494 38497 {}
38497 38498 {}
38496 38497 {}
38498 38499 {}
38528 38570 {}
38502 38503 {}
38503 38526 {}
38526 38527 {}
38524 38525 {}
38507 38508 {}
38508 38522 {}
38522 38523 {}
38520 38521 {}
38518 38519 {}
38516 38517 {}
38514 38515 {}
38514 38857 {}
38515 38516 {}
38517 38518 {}
38519 38520 {}
38521 38522 {}
38523 38524 {}
38525 38526 {}
38527 38528 {}
38570 38571 {}
38530 38540 {}
38533 38534 {}
38533 38608 {}
38540 38543 {}
38532 38542 {}
38542 38543 {}
38534 38535 {}
38608 38609 {}
38537 38609 {}
38609 38610 {}
38568 38569 {}
38543 38544 {}
38545 38627 {}
38627 38642 {}
38566 38567 {}
38548 38558 {}
38551 38552 {}
38551 38555 {}
38558 38561 {}
38550 38560 {}
38560 38561 {}
38552 38553 {}
38555 38556 {}
38555 38860 {}
38554 38555 {}
38554 38628 {}
38628 38640 {}
38628 38860 {}
38860 38861 {}
38564 38565 {}
38561 38562 {}
38561 38637 {}
38637 38638 {}
38565 38566 {}
38567 38568 {}
38569 38570 {}
38571 38572 {}
38573 38574 {}
38575 38576 {}
38577 38578 {}
38579 38580 {}
38581 38602 {}
38602 38603 {}
38583 38585 {}
38594 38595 {}
38594 38622 {}
38585 38590 {}
38590 38591 {}
38587 38589 {}
38589 38590 {}
38592 38612 {}
38612 38614 {}
38600 38601 {}
38595 38596 {}
38622 38623 {}
38598 38623 {}
38623 38624 {}
38601 38602 {}
38603 38604 {}
38605 38606 {}
38607 38635 {}
38610 38611 {}
38611 38644 {}
38644 38645 {}
38614 38615 {}
38615 38654 {}
38654 38655 {}
38618 38619 {}
38619 38650 {}
38650 38651 {}
38648 38649 {}
38658 38659 {}
38624 38625 {}
38625 38656 {}
38656 38657 {}
38646 38647 {}
38642 38643 {}
38640 38641 {}
38631 38632 {}
38632 38662 {}
38662 38663 {}
38652 38653 {}
38666 38667 {}
38666 38668 {}
38639 38640 {}
38641 38642 {}
38643 38644 {}
38645 38646 {}
38647 38648 {}
38649 38650 {}
38651 38652 {}
38653 38654 {}
38655 38656 {}
38657 38660 {}
38660 38661 {}
38659 38660 {}
38661 38664 {}
38664 38665 {}
38663 38664 {}
38665 38666 {}
38667 38670 {}
38667 38676 {}
38667 38682 {}
38667 38688 {}
38667 38694 {}
38667 38700 {}
38667 38706 {}
38667 38712 {}
38667 38718 {}
38667 38724 {}
38667 38730 {}
38667 38736 {}
38667 38742 {}
38667 38748 {}
38667 38754 {}
38667 38760 {}
38667 38766 {}
38667 38772 {}
38667 38778 {}
38667 38784 {}
38667 38790 {}
38667 38796 {}
38667 38802 {}
38667 38808 {}
38667 38814 {}
38667 38820 {}
38667 38826 {}
38667 38832 {}
38667 38838 {}
38667 38844 {}
38667 38850 {}
38667 38854 {}
38671 38674 {}
38674 38675 {}
38673 38677 {}
38679 38680 {}
38675 38676 {}
38678 38683 {}
38680 38681 {}
38685 38686 {}
38681 38682 {}
38684 38689 {}
38686 38687 {}
38691 38692 {}
38687 38688 {}
38690 38695 {}
38692 38693 {}
38697 38698 {}
38693 38694 {}
38696 38702 {}
38698 38699 {}
38701 38704 {}
38699 38700 {}
38704 38705 {}
38703 38707 {}
38709 38710 {}
38705 38706 {}
38708 38714 {}
38710 38711 {}
38713 38716 {}
38711 38712 {}
38716 38717 {}
38715 38720 {}
38719 38722 {}
38717 38718 {}
38722 38723 {}
38721 38726 {}
38725 38728 {}
38723 38724 {}
38728 38729 {}
38727 38732 {}
38731 38734 {}
38729 38730 {}
38734 38735 {}
38733 38738 {}
38737 38740 {}
38735 38736 {}
38740 38741 {}
38739 38744 {}
38743 38746 {}
38741 38742 {}
38746 38747 {}
38745 38749 {}
38751 38752 {}
38747 38748 {}
38750 38755 {}
38752 38753 {}
38757 38758 {}
38753 38754 {}
38756 38762 {}
38758 38759 {}
38761 38764 {}
38759 38760 {}
38764 38765 {}
38763 38768 {}
38767 38770 {}
38765 38766 {}
38770 38771 {}
38769 38773 {}
38775 38776 {}
38771 38772 {}
38774 38780 {}
38776 38777 {}
38779 38782 {}
38777 38778 {}
38782 38783 {}
38781 38785 {}
38787 38788 {}
38783 38784 {}
38786 38792 {}
38788 38789 {}
38791 38794 {}
38789 38790 {}
38794 38795 {}
38793 38797 {}
38799 38800 {}
38795 38796 {}
38798 38803 {}
38800 38801 {}
38805 38806 {}
38801 38802 {}
38804 38809 {}
38806 38807 {}
38811 38812 {}
38807 38808 {}
38810 38816 {}
38812 38813 {}
38815 38818 {}
38813 38814 {}
38818 38819 {}
38817 38821 {}
38823 38824 {}
38819 38820 {}
38822 38828 {}
38824 38825 {}
38827 38830 {}
38825 38826 {}
38830 38831 {}
38829 38833 {}
38835 38836 {}
38831 38832 {}
38834 38840 {}
38836 38837 {}
38839 38842 {}
38837 38838 {}
38842 38843 {}
38841 38846 {}
38845 38848 {}
38843 38844 {}
38848 38849 {}
38847 38852 {}
38852 38853 {}
38849 38850 {}
38853 38854 {}
38869 38872 {}
38869 38884 {}
38869 38930 {}
38869 38948 {}
38872 38873 {}
38884 38885 {}
38930 38931 {}
38948 38949 {}
38870 38871 {}
38871 38872 {}
38871 38896 {}
38871 38925 {}
38871 38933 {}
38896 38897 {}
38925 38926 {}
38933 38934 {}
38873 38874 {}
38873 39291 {}
38873 39323 {}
38873 39402 {}
38873 39448 {}
38873 39492 {}
38873 39573 {}
38873 39600 {}
38873 39678 {}
38873 39701 {}
38873 39786 {}
38873 39827 {}
38873 39867 {}
38873 39945 {}
38873 39979 {}
38873 40047 {}
38873 40110 {}
38873 40160 {}
38873 40213 {}
38873 40241 {}
38873 40313 {}
38873 40336 {}
38873 40408 {}
38873 40445 {}
38873 40627 {}
38873 40865 {}
38873 40978 {}
38873 41047 {}
38873 41071 {}
38873 41166 {}
38873 41204 {}
38873 41290 {}
38882 38883 {}
38876 38879 {}
38876 38884 {}
38876 38889 {}
38876 38940 {}
38879 38880 {}
38889 38890 {}
38940 38941 {}
38878 38879 {}
38878 38896 {}
38878 38922 {}
38878 38951 {}
38922 38923 {}
38951 38952 {}
38880 38881 {}
38880 39305 {}
38880 39348 {}
38880 39403 {}
38880 39447 {}
38880 39515 {}
38880 39551 {}
38880 39597 {}
38880 39660 {}
38880 39709 {}
38880 39764 {}
38880 39818 {}
38880 39868 {}
38880 39926 {}
38880 39965 {}
38880 40034 {}
38880 40095 {}
38880 40138 {}
38880 40191 {}
38880 40232 {}
38880 40295 {}
38880 40367 {}
38880 40395 {}
38880 40441 {}
38880 40604 {}
38880 40842 {}
38880 40989 {}
38880 41021 {}
38880 41079 {}
38880 41143 {}
38880 41196 {}
38880 41304 {}
38883 38894 {}
38894 38895 {}
38885 38886 {}
38885 39273 {}
38885 39345 {}
38885 39384 {}
38885 39433 {}
38885 39514 {}
38885 39555 {}
38885 39632 {}
38885 39668 {}
38885 39712 {}
38885 39768 {}
38885 39805 {}
38885 39879 {}
38885 39948 {}
38885 40001 {}
38885 40046 {}
38885 40087 {}
38885 40132 {}
38885 40185 {}
38885 40245 {}
38885 40303 {}
38885 40331 {}
38885 40385 {}
38885 40454 {}
38885 40616 {}
38885 40874 {}
38885 40977 {}
38885 41025 {}
38885 41082 {}
38885 41162 {}
38885 41209 {}
38885 41268 {}
38892 38893 {}
38888 38889 {}
38888 38901 {}
38888 38913 {}
38888 38933 {}
38901 38902 {}
38913 38914 {}
38890 38891 {}
38890 39296 {}
38890 39344 {}
38890 39407 {}
38890 39470 {}
38890 39525 {}
38890 39545 {}
38890 39629 {}
38890 39669 {}
38890 39714 {}
38890 39758 {}
38890 39837 {}
38890 39894 {}
38890 39939 {}
38890 39998 {}
38890 40031 {}
38890 40084 {}
38890 40139 {}
38890 40208 {}
38890 40242 {}
38890 40286 {}
38890 40332 {}
38890 40414 {}
38890 40458 {}
38890 40601 {}
38890 40870 {}
38890 40999 {}
38890 41054 {}
38890 41084 {}
38890 41139 {}
38890 41186 {}
38890 41272 {}
38893 38894 {}
38895 38920 {}
38920 38921 {}
38897 38898 {}
38897 39284 {}
38897 39337 {}
38897 39394 {}
38897 39459 {}
38897 39511 {}
38897 39568 {}
38897 39607 {}
38897 39647 {}
38897 39702 {}
38897 39781 {}
38897 39814 {}
38897 39872 {}
38897 39916 {}
38897 39970 {}
38897 40056 {}
38897 40106 {}
38897 40150 {}
38897 40217 {}
38897 40267 {}
38897 40314 {}
38897 40341 {}
38897 40404 {}
38897 40467 {}
38897 40594 {}
38897 40853 {}
38897 40985 {}
38897 41044 {}
38897 41072 {}
38897 41144 {}
38897 41193 {}
38897 41294 {}
38904 38905 {}
38900 38901 {}
38900 38922 {}
38900 38930 {}
38900 38943 {}
38943 38944 {}
38902 38903 {}
38902 39292 {}
38902 39326 {}
38902 39381 {}
38902 39434 {}
38902 39489 {}
38902 39541 {}
38902 39619 {}
38902 39672 {}
38902 39704 {}
38902 39754 {}
38902 39836 {}
38902 39884 {}
38902 39935 {}
38902 39991 {}
38902 40030 {}
38902 40088 {}
38902 40165 {}
38902 40218 {}
38902 40257 {}
38902 40307 {}
38902 40364 {}
38902 40413 {}
38902 40436 {}
38902 40600 {}
38902 40852 {}
38902 40963 {}
38902 41026 {}
38902 41074 {}
38902 41152 {}
38902 41219 {}
38902 41305 {}
38905 38918 {}
38918 38919 {}
38906 38907 {}
38907 38910 {}
38907 38925 {}
38907 38940 {}
38907 38943 {}
38910 38911 {}
38909 38910 {}
38909 38913 {}
38909 38948 {}
38909 38951 {}
38911 38912 {}
38911 39279 {}
38911 39336 {}
38911 39390 {}
38911 39456 {}
38911 39498 {}
38911 39564 {}
38911 39611 {}
38911 39657 {}
38911 39708 {}
38911 39777 {}
38911 39841 {}
38911 39858 {}
38911 39913 {}
38911 39987 {}
38911 40024 {}
38911 40083 {}
38911 40129 {}
38911 40182 {}
38911 40254 {}
38911 40292 {}
38911 40357 {}
38911 40386 {}
38911 40446 {}
38911 40617 {}
38911 40849 {}
38911 41000 {}
38911 41043 {}
38911 41078 {}
38911 41155 {}
38911 41215 {}
38911 41291 {}
38916 38917 {}
38914 38915 {}
38914 39270 {}
38914 39354 {}
38914 39395 {}
38914 39443 {}
38914 39503 {}
38914 39567 {}
38914 39601 {}
38914 39673 {}
38914 39706 {}
38914 39780 {}
38914 39808 {}
38914 39871 {}
38914 39938 {}
38914 39980 {}
38914 40052 {}
38914 40073 {}
38914 40164 {}
38914 40204 {}
38914 40235 {}
38914 40282 {}
38914 40358 {}
38914 40407 {}
38914 40432 {}
38914 40622 {}
38914 40848 {}
38914 40996 {}
38914 41058 {}
38914 41076 {}
38914 41134 {}
38914 41205 {}
38914 41295 {}
38917 38918 {}
38919 38920 {}
38921 38960 {}
38960 38961 {}
38960 39265 {}
38923 38924 {}
38923 39306 {}
38923 39322 {}
38923 39417 {}
38923 39437 {}
38923 39521 {}
38923 39556 {}
38923 39633 {}
38923 39683 {}
38923 39715 {}
38923 39769 {}
38923 39819 {}
38923 39883 {}
38923 39927 {}
38923 39969 {}
38923 40035 {}
38923 40109 {}
38923 40155 {}
38923 40195 {}
38923 40263 {}
38923 40304 {}
38923 40345 {}
38923 40382 {}
38923 40453 {}
38923 40605 {}
38923 40860 {}
38923 40967 {}
38923 41048 {}
38923 41085 {}
38923 41130 {}
38923 41183 {}
38923 41282 {}
38928 38929 {}
38926 38927 {}
38926 39301 {}
38926 39332 {}
38926 39412 {}
38926 39460 {}
38926 39520 {}
38926 39552 {}
38926 39610 {}
38926 39682 {}
38926 39711 {}
38926 39765 {}
38926 39831 {}
38926 39861 {}
38926 39923 {}
38926 39975 {}
38926 40057 {}
38926 40078 {}
38926 40128 {}
38926 40181 {}
38926 40236 {}
38926 40317 {}
38926 40354 {}
38926 40381 {}
38926 40435 {}
38926 40612 {}
38926 40839 {}
38926 40990 {}
38926 41035 {}
38926 41081 {}
38926 41161 {}
38926 41218 {}
38926 41300 {}
38929 38938 {}
38938 38939 {}
38931 38932 {}
38931 39269 {}
38931 39358 {}
38931 39380 {}
38931 39438 {}
38931 39488 {}
38931 39546 {}
38931 39606 {}
38931 39661 {}
38931 39705 {}
38931 39759 {}
38931 39840 {}
38931 39857 {}
38931 39944 {}
38931 39997 {}
38931 40025 {}
38931 40100 {}
38931 40161 {}
38931 40214 {}
38931 40253 {}
38931 40296 {}
38931 40353 {}
38931 40391 {}
38931 40442 {}
38931 40626 {}
38931 40861 {}
38931 40968 {}
38931 41057 {}
38931 41075 {}
38931 41129 {}
38931 41182 {}
38931 41283 {}
38936 38937 {}
38934 38935 {}
38934 39302 {}
38934 39359 {}
38934 39385 {}
38934 39444 {}
38934 39493 {}
38934 39578 {}
38934 39623 {}
38934 39651 {}
38934 39713 {}
38934 39791 {}
38934 39826 {}
38934 39890 {}
38934 39917 {}
38934 39992 {}
38934 40020 {}
38934 40074 {}
38934 40151 {}
38934 40192 {}
38934 40264 {}
38934 40308 {}
38934 40346 {}
38934 40396 {}
38934 40457 {}
38934 40590 {}
38934 40871 {}
38934 40995 {}
38934 41022 {}
38934 41083 {}
38934 41151 {}
38934 41214 {}
38934 41279 {}
38937 38938 {}
38939 38958 {}
38958 38959 {}
38941 38942 {}
38941 39274 {}
38941 39327 {}
38941 39416 {}
38941 39455 {}
38941 39510 {}
38941 39563 {}
38941 39622 {}
38941 39650 {}
38941 39710 {}
38941 39776 {}
38941 39815 {}
38941 39893 {}
38941 39949 {}
38941 40002 {}
38941 40053 {}
38941 40105 {}
38941 40133 {}
38941 40186 {}
38941 40246 {}
38941 40285 {}
38941 40368 {}
38941 40392 {}
38941 40468 {}
38941 40623 {}
38941 40864 {}
38941 40973 {}
38941 41053 {}
38941 41080 {}
38941 41156 {}
38941 41208 {}
38941 41301 {}
38946 38947 {}
38944 38945 {}
38944 39280 {}
38944 39355 {}
38944 39391 {}
38944 39465 {}
38944 39499 {}
38944 39542 {}
38944 39628 {}
38944 39656 {}
38944 39716 {}
38944 39755 {}
38944 39830 {}
38944 39889 {}
38944 39922 {}
38944 39976 {}
38944 40043 {}
38944 40099 {}
38944 40143 {}
38944 40196 {}
38944 40258 {}
38944 40291 {}
38944 40363 {}
38944 40403 {}
38944 40431 {}
38944 40613 {}
38944 40843 {}
38944 40986 {}
38944 41036 {}
38944 41086 {}
38944 41165 {}
38944 41192 {}
38944 41269 {}
38947 38956 {}
38956 38957 {}
38949 38950 {}
38949 39295 {}
38949 39333 {}
38949 39406 {}
38949 39466 {}
38949 39524 {}
38949 39577 {}
38949 39596 {}
38949 39646 {}
38949 39703 {}
38949 39790 {}
38949 39809 {}
38949 39862 {}
38949 39934 {}
38949 39988 {}
38949 40042 {}
38949 40096 {}
38949 40154 {}
38949 40207 {}
38949 40231 {}
38949 40281 {}
38949 40342 {}
38949 40417 {}
38949 40464 {}
38949 40595 {}
38949 40838 {}
38949 40974 {}
38949 41031 {}
38949 41073 {}
38949 41133 {}
38949 41187 {}
38949 41273 {}
38954 38955 {}
38952 38953 {}
38952 39283 {}
38952 39349 {}
38952 39413 {}
38952 39469 {}
38952 39502 {}
38952 39574 {}
38952 39618 {}
38952 39679 {}
38952 39707 {}
38952 39787 {}
38952 39804 {}
38952 39880 {}
38952 39912 {}
38952 39966 {}
38952 40021 {}
38952 40077 {}
38952 40142 {}
38952 40203 {}
38952 40268 {}
38952 40318 {}
38952 40335 {}
38952 40418 {}
38952 40463 {}
38952 40591 {}
38952 40875 {}
38952 40964 {}
38952 41032 {}
38952 41077 {}
38952 41140 {}
38952 41197 {}
38952 41278 {}
38955 38956 {}
38957 38958 {}
38959 38960 {}
38961 39266 {}
39265 39267 {}
39265 40588 {}
39266 39267 {}
38963 38968 {}
38969 38970 {}
38968 38970 {}
38968 39247 {}
38966 38967 {}
38966 38968 {}
38966 46270 {}
38966 46273 {}
38967 38969 {}
38967 46271 {}
38967 46272 {}
46270 46274 {}
46273 46275 {}
46271 46274 {}
46272 46275 {}
38970 38971 {}
38970 39315 {}
39247 39248 {}
39247 39259 {}
39247 39262 {}
39247 40647 {}
38971 39246 {}
39315 39316 {}
39246 39247 {}
39246 39316 {}
38973 38979 {}
38978 39243 {}
38978 39244 {}
38978 39368 {}
38979 39242 {}
38979 39245 {}
38979 39368 {}
38976 38977 {}
38976 38979 {}
38976 46053 {}
38976 46055 {}
38977 38978 {}
38977 46052 {}
38977 46054 {}
46053 46056 {}
46055 46057 {}
46052 46056 {}
46054 46057 {}
39243 39245 {}
39244 39315 {}
39368 39369 {}
39368 39370 {}
39368 39372 {}
39242 39244 {}
39245 39246 {}
38981 38986 {}
38987 38988 {}
38986 38988 {}
38986 39240 {}
38984 38985 {}
38984 38986 {}
38984 42341 {}
38984 42344 {}
38985 38987 {}
38985 42342 {}
38985 42343 {}
42341 42345 {}
42344 42346 {}
42342 42345 {}
42343 42346 {}
38988 38989 {}
38988 39426 {}
39240 39241 {}
39240 39243 {}
39240 39370 {}
39240 39373 {}
38989 39239 {}
39426 39427 {}
39239 39240 {}
39239 39427 {}
38991 38997 {}
38996 39236 {}
38996 39237 {}
38996 39479 {}
38997 39235 {}
38997 39238 {}
38997 39479 {}
38994 38995 {}
38994 38997 {}
38994 41857 {}
38994 41859 {}
38995 38996 {}
38995 41856 {}
38995 41858 {}
41857 41860 {}
41859 41861 {}
41856 41860 {}
41858 41861 {}
39236 39238 {}
39237 39426 {}
39479 39480 {}
39479 39481 {}
39479 39483 {}
39235 39237 {}
39238 39239 {}
39000 39001 {}
39000 39004 {}
39000 41709 {}
39000 41712 {}
39001 39005 {}
39001 41710 {}
39001 41711 {}
39004 39006 {}
39004 39233 {}
41709 41713 {}
41712 41714 {}
39005 39006 {}
41710 41713 {}
41711 41714 {}
39003 39004 {}
39006 39007 {}
39006 39534 {}
39233 39234 {}
39233 39236 {}
39233 39481 {}
39233 39484 {}
39007 39232 {}
39534 39535 {}
39232 39233 {}
39232 39535 {}
39009 39015 {}
39014 39229 {}
39014 39230 {}
39014 39587 {}
39015 39228 {}
39015 39231 {}
39015 39587 {}
39012 39013 {}
39012 39015 {}
39012 41728 {}
39012 41730 {}
39013 39014 {}
39013 41727 {}
39013 41729 {}
41728 41731 {}
41730 41732 {}
41727 41731 {}
41729 41732 {}
39229 39231 {}
39230 39534 {}
39587 39588 {}
39587 39589 {}
39587 39591 {}
39228 39230 {}
39231 39232 {}
39017 39022 {}
39023 39024 {}
39022 39024 {}
39022 39226 {}
39020 39021 {}
39020 39022 {}
39020 41743 {}
39020 41746 {}
39021 39023 {}
39021 41744 {}
39021 41745 {}
41743 41747 {}
41746 41748 {}
41744 41747 {}
41745 41748 {}
39024 39025 {}
39024 39642 {}
39226 39227 {}
39226 39229 {}
39226 39589 {}
39226 39592 {}
39025 39225 {}
39642 39643 {}
39225 39226 {}
39225 39643 {}
39027 39033 {}
39032 39222 {}
39032 39223 {}
39032 39692 {}
39033 39221 {}
39033 39224 {}
39033 39692 {}
39030 39031 {}
39030 39033 {}
39030 41756 {}
39030 41759 {}
39031 39032 {}
39031 41757 {}
39031 41758 {}
41756 41760 {}
41759 41761 {}
41757 41760 {}
41758 41761 {}
39222 39224 {}
39223 39642 {}
39692 39693 {}
39692 39694 {}
39692 39696 {}
39221 39223 {}
39224 39225 {}
39035 39040 {}
39041 39042 {}
39040 39042 {}
39040 39219 {}
39038 39039 {}
39038 39040 {}
39038 41769 {}
39038 41772 {}
39039 39041 {}
39039 41770 {}
39039 41771 {}
41769 41773 {}
41772 41774 {}
41770 41773 {}
41771 41774 {}
39042 39043 {}
39042 39747 {}
39219 39220 {}
39219 39222 {}
39219 39694 {}
39219 39697 {}
39043 39218 {}
39747 39748 {}
39218 39219 {}
39218 39748 {}
39045 39050 {}
39051 39052 {}
39050 39052 {}
39050 39216 {}
39048 39049 {}
39048 39050 {}
39048 41779 {}
39048 41782 {}
39049 39051 {}
39049 41780 {}
39049 41781 {}
41779 41783 {}
41782 41784 {}
41780 41783 {}
41781 41784 {}
39052 39053 {}
39052 39800 {}
39216 39217 {}
39216 39218 {}
39053 39215 {}
39800 39801 {}
39215 39216 {}
39215 39801 {}
39055 39060 {}
39061 39062 {}
39060 39062 {}
39060 39213 {}
39058 39059 {}
39058 39060 {}
39058 41789 {}
39058 41792 {}
39059 39061 {}
39059 41790 {}
39059 41791 {}
41789 41793 {}
41792 41794 {}
41790 41793 {}
41791 41794 {}
39062 39063 {}
39062 39850 {}
39213 39214 {}
39213 39215 {}
39063 39212 {}
39850 39851 {}
39212 39213 {}
39212 39851 {}
39065 39071 {}
39070 39209 {}
39070 39210 {}
39070 39903 {}
39071 39208 {}
39071 39211 {}
39071 39903 {}
39068 39069 {}
39068 39071 {}
39068 50162 {}
39068 50165 {}
39069 39070 {}
39069 50163 {}
39069 50164 {}
50162 50166 {}
50165 50167 {}
50163 50166 {}
50164 50167 {}
39209 39211 {}
39210 39850 {}
39903 39904 {}
39903 39905 {}
39903 39907 {}
39208 39210 {}
39211 39212 {}
39073 39078 {}
39079 39080 {}
39078 39080 {}
39078 39206 {}
39076 39077 {}
39076 39078 {}
39076 49989 {}
39076 49992 {}
39077 39079 {}
39077 49990 {}
39077 49991 {}
49989 49993 {}
49992 49994 {}
49990 49993 {}
49991 49994 {}
39080 39081 {}
39080 39958 {}
39206 39207 {}
39206 39209 {}
39206 39906 {}
39206 39907 {}
39081 39205 {}
39958 39959 {}
39205 39206 {}
39205 39959 {}
39083 39089 {}
39088 39202 {}
39088 39203 {}
39088 40011 {}
39089 39201 {}
39089 39204 {}
39089 40011 {}
39086 39087 {}
39086 39089 {}
39086 49815 {}
39086 49818 {}
39087 39088 {}
39087 49816 {}
39087 49817 {}
49815 49819 {}
49818 49820 {}
49816 49819 {}
49817 49820 {}
39202 39204 {}
39203 39958 {}
40011 40012 {}
40011 40013 {}
40011 40015 {}
39201 39203 {}
39204 39205 {}
39091 39096 {}
39097 39098 {}
39096 39098 {}
39096 39199 {}
39094 39095 {}
39094 39096 {}
39094 49640 {}
39094 49643 {}
39095 39097 {}
39095 49641 {}
39095 49642 {}
49640 49644 {}
49643 49645 {}
49641 49644 {}
49642 49645 {}
39098 39099 {}
39098 40066 {}
39199 39200 {}
39199 39202 {}
39199 40013 {}
39199 40016 {}
39099 39198 {}
40066 40067 {}
39198 39199 {}
39198 40067 {}
39101 39107 {}
39106 39195 {}
39106 39196 {}
39106 40119 {}
39107 39194 {}
39107 39197 {}
39107 40119 {}
39104 39105 {}
39104 39107 {}
39104 49556 {}
39104 49559 {}
39105 39106 {}
39105 49557 {}
39105 49558 {}
49556 49560 {}
49559 49561 {}
49557 49560 {}
49558 49561 {}
39195 39197 {}
39196 40066 {}
40119 40120 {}
40119 40121 {}
40119 40123 {}
39194 39196 {}
39197 39198 {}
39109 39114 {}
39115 39116 {}
39114 39116 {}
39114 39192 {}
39112 39113 {}
39112 39114 {}
39112 49386 {}
39112 49389 {}
39113 39115 {}
39113 49387 {}
39113 49388 {}
49386 49390 {}
49389 49391 {}
49387 49390 {}
49388 49391 {}
39116 39117 {}
39116 40174 {}
39192 39193 {}
39192 39195 {}
39192 40121 {}
39192 40124 {}
39117 39191 {}
40174 40175 {}
39191 39192 {}
39191 40175 {}
39119 39124 {}
39125 39126 {}
39124 39126 {}
39124 39189 {}
39122 39123 {}
39122 39124 {}
39122 49140 {}
39122 49143 {}
39123 39125 {}
39123 49141 {}
39123 49142 {}
49140 49144 {}
49143 49145 {}
49141 49144 {}
49142 49145 {}
39126 39127 {}
39126 40227 {}
39189 39190 {}
39189 39191 {}
39127 39188 {}
40227 40228 {}
39188 39189 {}
39188 40228 {}
39129 39134 {}
39182 39183 {}
39134 39183 {}
39134 39186 {}
39132 39133 {}
39132 39134 {}
39132 48970 {}
39132 48973 {}
39133 39182 {}
39133 48971 {}
39133 48972 {}
48970 48974 {}
48973 48975 {}
48971 48974 {}
48972 48975 {}
39183 39184 {}
39183 40277 {}
39186 39187 {}
39186 39188 {}
39136 39141 {}
39142 39143 {}
39141 39143 {}
39141 39180 {}
39139 39140 {}
39139 39141 {}
39139 48884 {}
39139 48887 {}
39140 39142 {}
39140 48885 {}
39140 48886 {}
48884 48888 {}
48887 48889 {}
48885 48888 {}
48886 48889 {}
39143 39144 {}
39143 40327 {}
39180 39181 {}
39180 39185 {}
39144 39179 {}
40327 40328 {}
39179 39180 {}
39179 40328 {}
39146 39151 {}
39173 39174 {}
39151 39174 {}
39151 39177 {}
39149 39150 {}
39149 39151 {}
39149 48629 {}
39149 48632 {}
39150 39173 {}
39150 48630 {}
39150 48631 {}
48629 48633 {}
48632 48634 {}
48630 48633 {}
48631 48634 {}
39174 39175 {}
39174 40377 {}
39177 39178 {}
39177 39179 {}
39153 39158 {}
39167 39168 {}
39158 39168 {}
39158 39171 {}
39156 39157 {}
39156 39158 {}
39156 48465 {}
39156 48468 {}
39157 39167 {}
39157 48466 {}
39157 48467 {}
48465 48469 {}
48468 48470 {}
48466 48469 {}
48467 48470 {}
39168 39169 {}
39168 40427 {}
39171 39172 {}
39171 39176 {}
39160 39165 {}
40477 40478 {}
39165 39166 {}
39165 40427 {}
39165 40478 {}
39163 39164 {}
39163 39165 {}
39163 48381 {}
39163 48384 {}
39164 40477 {}
39164 48382 {}
39164 48383 {}
48381 48385 {}
48384 48386 {}
48382 48385 {}
48383 48386 {}
39166 39170 {}
40427 40428 {}
40478 40479 {}
40478 40813 {}
39170 39171 {}
39170 40428 {}
39169 39170 {}
40428 40429 {}
40428 40482 {}
39172 40377 {}
39176 39177 {}
39176 40378 {}
40377 40378 {}
39175 39176 {}
40378 40379 {}
40378 40488 {}
39178 40327 {}
40328 40329 {}
40328 40494 {}
39181 40277 {}
39185 39186 {}
39185 40278 {}
40277 40278 {}
39184 39185 {}
40278 40279 {}
40278 40500 {}
39187 40227 {}
40228 40229 {}
40228 40506 {}
39190 40174 {}
40175 40176 {}
40175 40178 {}
39193 39194 {}
39193 40122 {}
39193 40123 {}
40121 40125 {}
40124 40126 {}
40122 40125 {}
40123 40126 {}
40067 40068 {}
40067 40070 {}
39200 39201 {}
39200 40014 {}
39200 40015 {}
40013 40017 {}
40016 40018 {}
40014 40017 {}
40015 40018 {}
39959 39960 {}
39959 39962 {}
39207 39208 {}
39207 39905 {}
39207 39908 {}
39906 39909 {}
39907 39910 {}
39905 39909 {}
39908 39910 {}
39851 39852 {}
39851 39854 {}
39214 39800 {}
39801 39802 {}
39801 40542 {}
39217 39747 {}
39748 39749 {}
39748 39751 {}
39220 39221 {}
39220 39695 {}
39220 39696 {}
39694 39698 {}
39697 39699 {}
39695 39698 {}
39696 39699 {}
39643 39644 {}
39643 40557 {}
39227 39228 {}
39227 39590 {}
39227 39591 {}
39589 39593 {}
39592 39594 {}
39590 39593 {}
39591 39594 {}
39535 39536 {}
39535 39538 {}
39234 39235 {}
39234 39482 {}
39234 39483 {}
39481 39485 {}
39484 39486 {}
39482 39485 {}
39483 39486 {}
39427 39428 {}
39427 39430 {}
39241 39242 {}
39241 39371 {}
39241 39372 {}
39370 39374 {}
39373 39375 {}
39371 39374 {}
39372 39375 {}
39316 39317 {}
39316 39319 {}
39248 39260 {}
39248 39261 {}
39248 40646 {}
39259 39263 {}
39262 39264 {}
40647 40649 {}
39260 39263 {}
39261 39264 {}
40646 40648 {}
39250 39256 {}
39255 39257 {}
39255 40647 {}
39255 40648 {}
39256 39257 {}
39256 40646 {}
39256 40649 {}
39253 39254 {}
39253 39256 {}
39253 46491 {}
39253 46493 {}
39254 39255 {}
39254 46490 {}
39254 46492 {}
46491 46494 {}
46493 46495 {}
46490 46494 {}
46492 46495 {}
39257 39258 {}
39257 39259 {}
39257 39261 {}
40648 40651 {}
40649 40650 {}
39258 39260 {}
39258 39262 {}
39263 39265 {}
39264 39266 {}
39267 39268 {}
39267 41491 {}
40588 40589 {}
40588 40658 {}
39268 40587 {}
41491 41492 {}
40587 40588 {}
40587 41492 {}
39271 39272 {}
39272 39277 {}
39277 39278 {}
39275 39276 {}
39276 39277 {}
39278 39289 {}
39289 39290 {}
39281 39282 {}
39282 39287 {}
39287 39288 {}
39285 39286 {}
39286 39287 {}
39288 39289 {}
39290 39313 {}
39313 39314 {}
39313 39318 {}
39293 39294 {}
39294 39299 {}
39299 39300 {}
39297 39298 {}
39298 39299 {}
39300 39311 {}
39311 39312 {}
39303 39304 {}
39304 39309 {}
39309 39310 {}
39307 39308 {}
39308 39309 {}
39310 39311 {}
39312 39313 {}
39314 39319 {}
39318 39320 {}
39318 40585 {}
39319 39320 {}
39317 39318 {}
39320 39321 {}
39320 41508 {}
40585 40586 {}
40585 40587 {}
39321 40584 {}
41508 41509 {}
40584 40585 {}
40584 41509 {}
39324 39325 {}
39325 39330 {}
39330 39331 {}
39328 39329 {}
39329 39330 {}
39331 39342 {}
39342 39343 {}
39334 39335 {}
39335 39340 {}
39340 39341 {}
39338 39339 {}
39339 39340 {}
39341 39342 {}
39343 39366 {}
39366 39367 {}
39366 39376 {}
39346 39347 {}
39347 39352 {}
39352 39353 {}
39350 39351 {}
39351 39352 {}
39353 39364 {}
39364 39365 {}
39356 39357 {}
39357 39362 {}
39362 39363 {}
39360 39361 {}
39361 39362 {}
39363 39364 {}
39365 39366 {}
39367 39377 {}
39376 39378 {}
39376 40582 {}
39377 39378 {}
39369 39371 {}
39369 39373 {}
39374 39376 {}
39375 39377 {}
39378 39379 {}
39378 41533 {}
40582 40583 {}
40582 40584 {}
39379 40581 {}
41533 41534 {}
40581 40582 {}
40581 41534 {}
39382 39383 {}
39383 39388 {}
39388 39389 {}
39386 39387 {}
39387 39388 {}
39389 39400 {}
39400 39401 {}
39392 39393 {}
39393 39398 {}
39398 39399 {}
39396 39397 {}
39397 39398 {}
39399 39400 {}
39401 39424 {}
39424 39425 {}
39424 39429 {}
39404 39405 {}
39405 39410 {}
39410 39411 {}
39408 39409 {}
39409 39410 {}
39411 39422 {}
39422 39423 {}
39414 39415 {}
39415 39420 {}
39420 39421 {}
39418 39419 {}
39419 39420 {}
39421 39422 {}
39423 39424 {}
39425 39430 {}
39429 39431 {}
39429 40579 {}
39430 39431 {}
39428 39429 {}
39431 39432 {}
39431 41550 {}
40579 40580 {}
40579 40581 {}
39432 40578 {}
41550 41551 {}
40578 40579 {}
40578 41551 {}
39435 39436 {}
39436 39441 {}
39441 39442 {}
39439 39440 {}
39440 39441 {}
39442 39453 {}
39453 39454 {}
39445 39446 {}
39446 39451 {}
39451 39452 {}
39449 39450 {}
39450 39451 {}
39452 39453 {}
39454 39477 {}
39477 39478 {}
39477 39487 {}
39457 39458 {}
39458 39463 {}
39463 39464 {}
39461 39462 {}
39462 39463 {}
39464 39475 {}
39475 39476 {}
39467 39468 {}
39468 39473 {}
39473 39474 {}
39471 39472 {}
39472 39473 {}
39474 39475 {}
39476 39477 {}
39478 40572 {}
39487 40573 {}
39487 40576 {}
40572 40573 {}
39480 39482 {}
39480 39484 {}
39485 39487 {}
39486 40572 {}
40573 40574 {}
40573 41568 {}
40576 40577 {}
40576 40578 {}
39490 39491 {}
39491 39496 {}
39496 39497 {}
39494 39495 {}
39495 39496 {}
39497 39508 {}
39508 39509 {}
39500 39501 {}
39501 39506 {}
39506 39507 {}
39504 39505 {}
39505 39506 {}
39507 39508 {}
39509 39532 {}
39532 39533 {}
39532 39537 {}
39512 39513 {}
39513 39518 {}
39518 39519 {}
39516 39517 {}
39517 39518 {}
39519 39530 {}
39530 39531 {}
39522 39523 {}
39523 39528 {}
39528 39529 {}
39526 39527 {}
39527 39528 {}
39529 39530 {}
39531 39532 {}
39533 39538 {}
39537 39539 {}
39537 40570 {}
39538 39539 {}
39536 39537 {}
39539 39540 {}
39539 41589 {}
40570 40571 {}
40570 40575 {}
39540 40569 {}
41589 41590 {}
40569 40570 {}
40569 41590 {}
39543 39544 {}
39544 39549 {}
39549 39550 {}
39547 39548 {}
39548 39549 {}
39550 39561 {}
39561 39562 {}
39553 39554 {}
39554 39559 {}
39559 39560 {}
39557 39558 {}
39558 39559 {}
39560 39561 {}
39562 39585 {}
39585 39586 {}
39585 39595 {}
39565 39566 {}
39566 39571 {}
39571 39572 {}
39569 39570 {}
39570 39571 {}
39572 39583 {}
39583 39584 {}
39575 39576 {}
39576 39581 {}
39581 39582 {}
39579 39580 {}
39580 39581 {}
39582 39583 {}
39584 39585 {}
39586 40563 {}
39595 40564 {}
39595 40567 {}
40563 40564 {}
39588 39590 {}
39588 39592 {}
39593 39595 {}
39594 40563 {}
40564 40565 {}
40564 41607 {}
40567 40568 {}
40567 40569 {}
39598 39599 {}
39599 39604 {}
39604 39605 {}
39602 39603 {}
39603 39604 {}
39605 39616 {}
39616 39617 {}
39608 39609 {}
39609 39614 {}
39614 39615 {}
39612 39613 {}
39613 39614 {}
39615 39616 {}
39617 39640 {}
39640 39641 {}
39640 39645 {}
39620 39621 {}
39621 39626 {}
39626 39627 {}
39624 39625 {}
39625 39626 {}
39627 39638 {}
39638 39639 {}
39630 39631 {}
39631 39636 {}
39636 39637 {}
39634 39635 {}
39635 39636 {}
39637 39638 {}
39639 39640 {}
39641 40557 {}
39645 40558 {}
39645 40561 {}
40557 40558 {}
39644 39645 {}
40558 40559 {}
40558 41625 {}
40561 40562 {}
40561 40566 {}
39648 39649 {}
39649 39654 {}
39654 39655 {}
39652 39653 {}
39653 39654 {}
39655 39666 {}
39666 39667 {}
39658 39659 {}
39659 39664 {}
39664 39665 {}
39662 39663 {}
39663 39664 {}
39665 39666 {}
39667 39690 {}
39690 39691 {}
39690 39700 {}
39670 39671 {}
39671 39676 {}
39676 39677 {}
39674 39675 {}
39675 39676 {}
39677 39688 {}
39688 39689 {}
39680 39681 {}
39681 39686 {}
39686 39687 {}
39684 39685 {}
39685 39686 {}
39687 39688 {}
39689 39690 {}
39691 40551 {}
39700 40552 {}
39700 40555 {}
40551 40552 {}
39693 39695 {}
39693 39697 {}
39698 39700 {}
39699 40551 {}
40552 40553 {}
40552 47334 {}
40555 40556 {}
40555 40560 {}
39733 39734 {}
39731 39732 {}
39717 39718 {}
39719 39720 {}
39735 39736 {}
39739 39740 {}
39723 39724 {}
39725 39726 {}
39718 39721 {}
39721 39722 {}
39720 39721 {}
39722 39729 {}
39729 39730 {}
39724 39727 {}
39727 39728 {}
39726 39727 {}
39728 39729 {}
39730 39745 {}
39745 39746 {}
39745 39750 {}
39732 39741 {}
39741 39742 {}
39734 39737 {}
39737 39738 {}
39736 39737 {}
39738 39743 {}
39743 39744 {}
39740 39741 {}
39742 39743 {}
39744 39745 {}
39746 39751 {}
39750 39752 {}
39750 40549 {}
39751 39752 {}
39749 39750 {}
39752 39753 {}
39752 47010 {}
40549 40550 {}
40549 40554 {}
39753 40548 {}
47010 47011 {}
40548 40549 {}
40548 47011 {}
39756 39757 {}
39757 39762 {}
39762 39763 {}
39760 39761 {}
39761 39762 {}
39763 39774 {}
39774 39775 {}
39766 39767 {}
39767 39772 {}
39772 39773 {}
39770 39771 {}
39771 39772 {}
39773 39774 {}
39775 39798 {}
39798 39799 {}
39798 39803 {}
39778 39779 {}
39779 39784 {}
39784 39785 {}
39782 39783 {}
39783 39784 {}
39785 39796 {}
39796 39797 {}
39788 39789 {}
39789 39794 {}
39794 39795 {}
39792 39793 {}
39793 39794 {}
39795 39796 {}
39797 39798 {}
39799 40542 {}
39803 40543 {}
39803 40546 {}
40542 40543 {}
39802 39803 {}
40543 40544 {}
40543 46902 {}
40546 40547 {}
40546 40548 {}
39806 39807 {}
39807 39812 {}
39812 39813 {}
39810 39811 {}
39811 39812 {}
39813 39824 {}
39824 39825 {}
39816 39817 {}
39817 39822 {}
39822 39823 {}
39820 39821 {}
39821 39822 {}
39823 39824 {}
39825 39848 {}
39848 39849 {}
39848 39853 {}
39828 39829 {}
39829 39834 {}
39834 39835 {}
39832 39833 {}
39833 39834 {}
39835 39846 {}
39846 39847 {}
39838 39839 {}
39839 39844 {}
39844 39845 {}
39842 39843 {}
39843 39844 {}
39845 39846 {}
39847 39848 {}
39849 39854 {}
39853 39855 {}
39853 40540 {}
39854 39855 {}
39852 39853 {}
39855 39856 {}
39855 46575 {}
40540 40541 {}
40540 40545 {}
39856 40539 {}
46575 46576 {}
40539 40540 {}
40539 46576 {}
39859 39860 {}
39860 39865 {}
39865 39866 {}
39863 39864 {}
39864 39865 {}
39866 39877 {}
39877 39878 {}
39869 39870 {}
39870 39875 {}
39875 39876 {}
39873 39874 {}
39874 39875 {}
39876 39877 {}
39878 39901 {}
39901 39902 {}
39901 39911 {}
39881 39882 {}
39882 39887 {}
39887 39888 {}
39885 39886 {}
39886 39887 {}
39888 39899 {}
39899 39900 {}
39891 39892 {}
39892 39897 {}
39897 39898 {}
39895 39896 {}
39896 39897 {}
39898 39899 {}
39900 39901 {}
39902 40533 {}
39911 40534 {}
39911 40537 {}
40533 40534 {}
39904 39906 {}
39904 39908 {}
39909 40533 {}
39910 39911 {}
40534 40535 {}
40534 46461 {}
40537 40538 {}
40537 40539 {}
39914 39915 {}
39915 39920 {}
39920 39921 {}
39918 39919 {}
39919 39920 {}
39921 39932 {}
39932 39933 {}
39924 39925 {}
39925 39930 {}
39930 39931 {}
39928 39929 {}
39929 39930 {}
39931 39932 {}
39933 39956 {}
39956 39957 {}
39956 39961 {}
39936 39937 {}
39937 39942 {}
39942 39943 {}
39940 39941 {}
39941 39942 {}
39943 39954 {}
39954 39955 {}
39946 39947 {}
39947 39952 {}
39952 39953 {}
39950 39951 {}
39951 39952 {}
39953 39954 {}
39955 39956 {}
39957 39962 {}
39961 39963 {}
39961 40531 {}
39962 39963 {}
39960 39961 {}
39963 39964 {}
39963 46241 {}
40531 40532 {}
40531 40536 {}
39964 40530 {}
46241 46242 {}
40530 40531 {}
40530 46242 {}
39967 39968 {}
39968 39973 {}
39973 39974 {}
39971 39972 {}
39972 39973 {}
39974 39985 {}
39985 39986 {}
39977 39978 {}
39978 39983 {}
39983 39984 {}
39981 39982 {}
39982 39983 {}
39984 39985 {}
39986 40009 {}
40009 40010 {}
40009 40019 {}
39989 39990 {}
39990 39995 {}
39995 39996 {}
39993 39994 {}
39994 39995 {}
39996 40007 {}
40007 40008 {}
39999 40000 {}
40000 40005 {}
40005 40006 {}
40003 40004 {}
40004 40005 {}
40006 40007 {}
40008 40009 {}
40010 40524 {}
40019 40525 {}
40019 40528 {}
40524 40525 {}
40012 40014 {}
40012 40016 {}
40017 40019 {}
40018 40524 {}
40525 40526 {}
40525 46023 {}
40528 40529 {}
40528 40530 {}
40022 40023 {}
40023 40028 {}
40028 40029 {}
40026 40027 {}
40027 40028 {}
40029 40040 {}
40040 40041 {}
40032 40033 {}
40033 40038 {}
40038 40039 {}
40036 40037 {}
40037 40038 {}
40039 40040 {}
40041 40064 {}
40064 40065 {}
40064 40069 {}
40044 40045 {}
40045 40050 {}
40050 40051 {}
40048 40049 {}
40049 40050 {}
40051 40062 {}
40062 40063 {}
40054 40055 {}
40055 40060 {}
40060 40061 {}
40058 40059 {}
40059 40060 {}
40061 40062 {}
40063 40064 {}
40065 40070 {}
40069 40071 {}
40069 40522 {}
40070 40071 {}
40068 40069 {}
40071 40072 {}
40071 42312 {}
40522 40523 {}
40522 40527 {}
40072 40521 {}
42312 42313 {}
40521 40522 {}
40521 42313 {}
40075 40076 {}
40076 40081 {}
40081 40082 {}
40079 40080 {}
40080 40081 {}
40082 40093 {}
40093 40094 {}
40085 40086 {}
40086 40091 {}
40091 40092 {}
40089 40090 {}
40090 40091 {}
40092 40093 {}
40094 40117 {}
40117 40118 {}
40117 40127 {}
40097 40098 {}
40098 40103 {}
40103 40104 {}
40101 40102 {}
40102 40103 {}
40104 40115 {}
40115 40116 {}
40107 40108 {}
40108 40113 {}
40113 40114 {}
40111 40112 {}
40112 40113 {}
40114 40115 {}
40116 40117 {}
40118 40515 {}
40127 40516 {}
40127 40519 {}
40515 40516 {}
40120 40122 {}
40120 40124 {}
40125 40127 {}
40126 40515 {}
40516 40517 {}
40516 41827 {}
40519 40520 {}
40519 40521 {}
40130 40131 {}
40131 40136 {}
40136 40137 {}
40134 40135 {}
40135 40136 {}
40137 40148 {}
40148 40149 {}
40140 40141 {}
40141 40146 {}
40146 40147 {}
40144 40145 {}
40145 40146 {}
40147 40148 {}
40149 40172 {}
40172 40173 {}
40172 40177 {}
40152 40153 {}
40153 40158 {}
40158 40159 {}
40156 40157 {}
40157 40158 {}
40159 40170 {}
40170 40171 {}
40162 40163 {}
40163 40168 {}
40168 40169 {}
40166 40167 {}
40167 40168 {}
40169 40170 {}
40171 40172 {}
40173 40178 {}
40177 40179 {}
40177 40513 {}
40178 40179 {}
40176 40177 {}
40179 40180 {}
40179 40766 {}
40513 40514 {}
40513 40518 {}
40180 40512 {}
40766 40767 {}
40512 40513 {}
40512 40767 {}
40183 40184 {}
40184 40189 {}
40189 40190 {}
40187 40188 {}
40188 40189 {}
40190 40201 {}
40201 40202 {}
40193 40194 {}
40194 40199 {}
40199 40200 {}
40197 40198 {}
40198 40199 {}
40200 40201 {}
40202 40225 {}
40225 40226 {}
40225 40230 {}
40205 40206 {}
40206 40211 {}
40211 40212 {}
40209 40210 {}
40210 40211 {}
40212 40223 {}
40223 40224 {}
40215 40216 {}
40216 40221 {}
40221 40222 {}
40219 40220 {}
40220 40221 {}
40222 40223 {}
40224 40225 {}
40226 40506 {}
40230 40507 {}
40230 40510 {}
40506 40507 {}
40229 40230 {}
40507 40508 {}
40507 41716 {}
40510 40511 {}
40510 40512 {}
40233 40234 {}
40234 40239 {}
40239 40240 {}
40237 40238 {}
40238 40239 {}
40240 40251 {}
40251 40252 {}
40243 40244 {}
40244 40249 {}
40249 40250 {}
40247 40248 {}
40248 40249 {}
40250 40251 {}
40252 40275 {}
40275 40276 {}
40275 40280 {}
40255 40256 {}
40256 40261 {}
40261 40262 {}
40259 40260 {}
40260 40261 {}
40262 40273 {}
40273 40274 {}
40265 40266 {}
40266 40271 {}
40271 40272 {}
40269 40270 {}
40270 40271 {}
40272 40273 {}
40274 40275 {}
40276 40500 {}
40280 40501 {}
40280 40504 {}
40500 40501 {}
40279 40280 {}
40501 40502 {}
40501 41737 {}
40504 40505 {}
40504 40509 {}
40283 40284 {}
40284 40289 {}
40289 40290 {}
40287 40288 {}
40288 40289 {}
40290 40301 {}
40301 40302 {}
40293 40294 {}
40294 40299 {}
40299 40300 {}
40297 40298 {}
40298 40299 {}
40300 40301 {}
40302 40325 {}
40325 40326 {}
40325 40330 {}
40305 40306 {}
40306 40311 {}
40311 40312 {}
40309 40310 {}
40310 40311 {}
40312 40323 {}
40323 40324 {}
40315 40316 {}
40316 40321 {}
40321 40322 {}
40319 40320 {}
40320 40321 {}
40322 40323 {}
40324 40325 {}
40326 40494 {}
40330 40495 {}
40330 40498 {}
40494 40495 {}
40329 40330 {}
40495 40496 {}
40495 41750 {}
40498 40499 {}
40498 40503 {}
40333 40334 {}
40334 40339 {}
40339 40340 {}
40337 40338 {}
40338 40339 {}
40340 40351 {}
40351 40352 {}
40343 40344 {}
40344 40349 {}
40349 40350 {}
40347 40348 {}
40348 40349 {}
40350 40351 {}
40352 40375 {}
40375 40376 {}
40375 40380 {}
40355 40356 {}
40356 40361 {}
40361 40362 {}
40359 40360 {}
40360 40361 {}
40362 40373 {}
40373 40374 {}
40365 40366 {}
40366 40371 {}
40371 40372 {}
40369 40370 {}
40370 40371 {}
40372 40373 {}
40374 40375 {}
40376 40488 {}
40380 40489 {}
40380 40492 {}
40488 40489 {}
40379 40380 {}
40489 40490 {}
40489 40773 {}
40492 40493 {}
40492 40497 {}
40383 40384 {}
40384 40389 {}
40389 40390 {}
40387 40388 {}
40388 40389 {}
40390 40401 {}
40401 40402 {}
40393 40394 {}
40394 40399 {}
40399 40400 {}
40397 40398 {}
40398 40399 {}
40400 40401 {}
40402 40425 {}
40425 40426 {}
40425 40430 {}
40405 40406 {}
40406 40411 {}
40411 40412 {}
40409 40410 {}
40410 40411 {}
40412 40423 {}
40423 40424 {}
40415 40416 {}
40416 40421 {}
40421 40422 {}
40419 40420 {}
40420 40421 {}
40422 40423 {}
40424 40425 {}
40426 40482 {}
40430 40483 {}
40430 40486 {}
40482 40483 {}
40429 40430 {}
40483 40484 {}
40483 40794 {}
40486 40487 {}
40486 40491 {}
40433 40434 {}
40434 40439 {}
40439 40440 {}
40437 40438 {}
40438 40439 {}
40440 40451 {}
40451 40452 {}
40443 40444 {}
40444 40449 {}
40449 40450 {}
40447 40448 {}
40448 40449 {}
40450 40451 {}
40452 40475 {}
40475 40476 {}
40475 40480 {}
40455 40456 {}
40456 40461 {}
40461 40462 {}
40459 40460 {}
40460 40461 {}
40462 40473 {}
40473 40474 {}
40465 40466 {}
40466 40471 {}
40471 40472 {}
40469 40470 {}
40470 40471 {}
40472 40473 {}
40474 40475 {}
40476 40813 {}
40480 40481 {}
40480 40794 {}
40480 40814 {}
40813 40814 {}
40479 40480 {}
40481 40485 {}
40794 40795 {}
40814 40815 {}
40814 40820 {}
40814 40822 {}
40814 42223 {}
40485 40486 {}
40485 40795 {}
40484 40485 {}
40795 40796 {}
40795 40801 {}
40795 40803 {}
40795 41797 {}
40487 40773 {}
40491 40492 {}
40491 40774 {}
40773 40774 {}
40490 40491 {}
40774 40775 {}
40774 40780 {}
40774 40782 {}
40774 41803 {}
40493 41750 {}
40497 40498 {}
40497 41751 {}
41750 41751 {}
40496 40497 {}
41751 41752 {}
41751 41763 {}
41751 41840 {}
41751 41842 {}
40499 41737 {}
40503 40504 {}
40503 41738 {}
41737 41738 {}
40502 40503 {}
41738 41739 {}
41738 41812 {}
41738 42323 {}
41738 42325 {}
40505 41716 {}
40509 40510 {}
40509 41717 {}
41716 41717 {}
40508 40509 {}
41717 41718 {}
41717 41734 {}
41717 46036 {}
41717 46038 {}
40511 40766 {}
40767 40768 {}
40767 41821 {}
40767 46252 {}
40767 46254 {}
40514 41827 {}
40518 40519 {}
40518 41828 {}
41827 41828 {}
40517 40518 {}
41828 41829 {}
41828 41863 {}
41828 46474 {}
41828 46476 {}
40520 42312 {}
42313 42314 {}
42313 42348 {}
42313 46586 {}
42313 46588 {}
40523 46023 {}
40527 40528 {}
40527 46024 {}
46023 46024 {}
40526 40527 {}
46024 46025 {}
46024 46059 {}
46024 46915 {}
46024 46917 {}
40529 46241 {}
46242 46243 {}
46242 46277 {}
46242 47023 {}
46242 47025 {}
40532 46461 {}
40536 40537 {}
40536 46462 {}
46461 46462 {}
40535 40536 {}
46462 46463 {}
46462 46497 {}
46462 47347 {}
46462 47349 {}
40538 46575 {}
46576 46577 {}
46576 46611 {}
46576 47553 {}
46576 47555 {}
40541 46902 {}
40545 40546 {}
40545 46903 {}
46902 46903 {}
40544 40545 {}
46903 46904 {}
46903 46936 {}
46903 47767 {}
46903 47769 {}
40547 47010 {}
47011 47012 {}
47011 47044 {}
47011 47870 {}
47011 47872 {}
40550 47334 {}
40554 40555 {}
40554 47335 {}
47334 47335 {}
40553 40554 {}
47335 47336 {}
47335 47370 {}
47335 48091 {}
47335 48093 {}
40556 41625 {}
40560 40561 {}
40560 41626 {}
41625 41626 {}
40559 40560 {}
41626 41627 {}
41626 41632 {}
41626 41634 {}
41626 47578 {}
40562 41607 {}
40566 40567 {}
40566 41608 {}
41607 41608 {}
40565 40566 {}
41608 41609 {}
41608 41614 {}
41608 41616 {}
41608 47790 {}
40568 41589 {}
41590 41591 {}
41590 41596 {}
41590 41598 {}
41590 47895 {}
40571 41568 {}
40575 40576 {}
40575 41569 {}
41568 41569 {}
40574 40575 {}
41569 41570 {}
41569 41575 {}
41569 41577 {}
41569 48116 {}
40577 41550 {}
41551 41552 {}
41551 41557 {}
41551 41559 {}
41551 48388 {}
40580 41533 {}
41534 41535 {}
41534 41536 {}
41534 41538 {}
41534 48472 {}
40583 41508 {}
41509 41510 {}
41509 41515 {}
41509 41517 {}
41509 48636 {}
40586 41491 {}
41492 41493 {}
41492 41494 {}
41492 41496 {}
41492 48891 {}
40589 40659 {}
40658 40660 {}
40658 41237 {}
40659 40660 {}
40592 40593 {}
40593 40598 {}
40598 40599 {}
40596 40597 {}
40597 40598 {}
40599 40610 {}
40610 40611 {}
40602 40603 {}
40603 40608 {}
40608 40609 {}
40606 40607 {}
40607 40608 {}
40609 40610 {}
40611 40634 {}
40634 40635 {}
40634 40654 {}
40614 40615 {}
40615 40620 {}
40620 40621 {}
40618 40619 {}
40619 40620 {}
40621 40632 {}
40632 40633 {}
40624 40625 {}
40625 40630 {}
40630 40631 {}
40628 40629 {}
40629 40630 {}
40631 40632 {}
40633 40634 {}
40635 40655 {}
40654 40656 {}
40654 41237 {}
40655 40656 {}
40637 40642 {}
40643 40644 {}
40642 40644 {}
40642 40938 {}
40640 40641 {}
40640 40642 {}
40640 46604 {}
40640 46607 {}
40641 40643 {}
40641 46605 {}
40641 46606 {}
46604 46608 {}
46607 46609 {}
46605 46608 {}
46606 46609 {}
40644 40645 {}
40644 40651 {}
40938 40939 {}
40938 40941 {}
40938 41231 {}
40938 41232 {}
40645 40650 {}
40651 40652 {}
40650 40652 {}
40650 40938 {}
40652 40653 {}
40652 40655 {}
40653 40654 {}
40656 40657 {}
40656 40659 {}
41237 41238 {}
41237 41242 {}
40657 40658 {}
40660 40661 {}
40660 40666 {}
40660 40668 {}
40660 48977 {}
40661 40667 {}
40661 40669 {}
40661 48976 {}
40666 40670 {}
40668 40671 {}
48977 48978 {}
40667 40670 {}
40669 40671 {}
48976 48978 {}
48976 49135 {}
40664 40665 {}
40664 40666 {}
40664 40669 {}
40665 40667 {}
40665 40668 {}
40670 41482 {}
40670 42363 {}
40670 42366 {}
40671 41670 {}
40671 42364 {}
40671 42365 {}
41482 41671 {}
41482 41674 {}
42363 42367 {}
42366 42368 {}
41670 41671 {}
42364 42367 {}
42365 42368 {}
40673 40676 {}
40673 40717 {}
40673 40744 {}
40673 40755 {}
40676 40677 {}
40717 40718 {}
40744 40745 {}
40755 40756 {}
40674 40675 {}
40675 40676 {}
40675 40681 {}
40675 40726 {}
40675 40737 {}
40681 40682 {}
40726 40727 {}
40737 40738 {}
40677 40678 {}
40677 41884 {}
40677 41960 {}
40677 41999 {}
40677 42064 {}
40677 42100 {}
40677 42137 {}
40677 42188 {}
40677 42279 {}
40677 46002 {}
40677 46210 {}
40677 46428 {}
40677 46564 {}
40677 46863 {}
40677 47001 {}
40677 47286 {}
40677 47497 {}
40677 47719 {}
40677 47843 {}
40677 48056 {}
40677 48341 {}
40677 48424 {}
40677 48595 {}
40677 48866 {}
40677 48922 {}
40677 49090 {}
40677 49342 {}
40677 49515 {}
40677 49614 {}
40677 49782 {}
40677 49950 {}
40677 50114 {}
40684 40685 {}
40680 40681 {}
40680 40709 {}
40680 40729 {}
40680 40734 {}
40709 40710 {}
40729 40730 {}
40734 40735 {}
40682 40683 {}
40682 41885 {}
40682 41941 {}
40682 41982 {}
40682 42060 {}
40682 42114 {}
40682 42153 {}
40682 42178 {}
40682 42265 {}
40682 45998 {}
40682 46196 {}
40682 46445 {}
40682 46531 {}
40682 46871 {}
40682 46987 {}
40682 47287 {}
40682 47499 {}
40682 47746 {}
40682 47831 {}
40682 48070 {}
40682 48335 {}
40682 48425 {}
40682 48612 {}
40682 48847 {}
40682 48936 {}
40682 49104 {}
40682 49364 {}
40682 49516 {}
40682 49613 {}
40682 49785 {}
40682 49951 {}
40682 50128 {}
40685 40700 {}
40700 40701 {}
40687 40690 {}
40687 40714 {}
40687 40726 {}
40687 40752 {}
40690 40691 {}
40714 40715 {}
40752 40753 {}
40689 40690 {}
40689 40695 {}
40689 40729 {}
40689 40744 {}
40695 40696 {}
40691 40692 {}
40691 41901 {}
40691 41949 {}
40691 42013 {}
40691 42037 {}
40691 42078 {}
40691 42149 {}
40691 42213 {}
40691 42300 {}
40691 45985 {}
40691 46221 {}
40691 46414 {}
40691 46527 {}
40691 46870 {}
40691 47000 {}
40691 47300 {}
40691 47512 {}
40691 47745 {}
40691 47848 {}
40691 48034 {}
40691 48334 {}
40691 48440 {}
40691 48581 {}
40691 48855 {}
40691 48931 {}
40691 49099 {}
40691 49360 {}
40691 49519 {}
40691 49605 {}
40691 49773 {}
40691 49967 {}
40691 50135 {}
40698 40699 {}
40693 40694 {}
40694 40695 {}
40694 40704 {}
40694 40737 {}
40694 40747 {}
40704 40705 {}
40747 40748 {}
40696 40697 {}
40696 41889 {}
40696 41942 {}
40696 42004 {}
40696 42032 {}
40696 42110 {}
40696 42160 {}
40696 42191 {}
40696 42278 {}
40696 45986 {}
40696 46217 {}
40696 46418 {}
40696 46538 {}
40696 46854 {}
40696 46978 {}
40696 47296 {}
40696 47509 {}
40696 47724 {}
40696 47821 {}
40696 48037 {}
40696 48345 {}
40696 48450 {}
40696 48613 {}
40696 48848 {}
40696 48943 {}
40696 49116 {}
40696 49352 {}
40696 49532 {}
40696 49606 {}
40696 49770 {}
40696 49963 {}
40696 50145 {}
40699 40700 {}
40701 40724 {}
40724 40725 {}
40703 40704 {}
40703 40734 {}
40703 40752 {}
40703 40755 {}
40705 40706 {}
40705 41878 {}
40705 41959 {}
40705 42009 {}
40705 42027 {}
40705 42087 {}
40705 42164 {}
40705 42210 {}
40705 42274 {}
40705 45979 {}
40705 46209 {}
40705 46417 {}
40705 46541 {}
40705 46866 {}
40705 46991 {}
40705 47318 {}
40705 47501 {}
40705 47731 {}
40705 47839 {}
40705 48043 {}
40705 48357 {}
40705 48418 {}
40705 48584 {}
40705 48865 {}
40705 48953 {}
40705 49121 {}
40705 49373 {}
40705 49538 {}
40705 49618 {}
40705 49791 {}
40705 49944 {}
40705 50124 {}
40712 40713 {}
40708 40709 {}
40708 40714 {}
40708 40717 {}
40708 40747 {}
40710 40711 {}
40710 41875 {}
40710 41954 {}
40710 41992 {}
40710 42050 {}
40710 42081 {}
40710 42142 {}
40710 42181 {}
40710 42286 {}
40710 45990 {}
40710 46205 {}
40710 46424 {}
40710 46528 {}
40710 46858 {}
40710 46996 {}
40710 47291 {}
40710 47505 {}
40710 47710 {}
40710 47816 {}
40710 48059 {}
40710 48344 {}
40710 48437 {}
40710 48591 {}
40710 48860 {}
40710 48958 {}
40710 49125 {}
40710 49337 {}
40710 49510 {}
40710 49623 {}
40710 49760 {}
40710 49941 {}
40710 50113 {}
40713 40722 {}
40722 40723 {}
40715 40716 {}
40715 41911 {}
40715 41937 {}
40715 41987 {}
40715 42053 {}
40715 42109 {}
40715 42138 {}
40715 42204 {}
40715 42287 {}
40715 46007 {}
40715 46206 {}
40715 46450 {}
40715 46532 {}
40715 46869 {}
40715 46997 {}
40715 47301 {}
40715 47513 {}
40715 47723 {}
40715 47842 {}
40715 48044 {}
40715 48362 {}
40715 48436 {}
40715 48603 {}
40715 48843 {}
40715 48932 {}
40715 49093 {}
40715 49348 {}
40715 49531 {}
40715 49624 {}
40715 49764 {}
40715 49977 {}
40715 50150 {}
40720 40721 {}
40718 40719 {}
40718 41897 {}
40718 41931 {}
40718 41978 {}
40718 42031 {}
40718 42104 {}
40718 42127 {}
40718 42199 {}
40718 42269 {}
40718 45975 {}
40718 46227 {}
40718 46435 {}
40718 46542 {}
40718 46867 {}
40718 46968 {}
40718 47297 {}
40718 47504 {}
40718 47709 {}
40718 47817 {}
40718 48066 {}
40718 48340 {}
40718 48451 {}
40718 48602 {}
40718 48837 {}
40718 48957 {}
40718 49126 {}
40718 49341 {}
40718 49520 {}
40718 49617 {}
40718 49759 {}
40718 49955 {}
40718 50127 {}
40721 40722 {}
40723 40724 {}
40725 40764 {}
40764 40765 {}
40764 41870 {}
40727 40728 {}
40727 41896 {}
40727 41927 {}
40727 41977 {}
40727 42041 {}
40727 42092 {}
40727 42159 {}
40727 42209 {}
40727 42296 {}
40727 45997 {}
40727 46232 {}
40727 46439 {}
40727 46549 {}
40727 46856 {}
40727 46975 {}
40727 47308 {}
40727 47510 {}
40727 47735 {}
40727 47852 {}
40727 48065 {}
40727 48356 {}
40727 48429 {}
40727 48606 {}
40727 48833 {}
40727 48926 {}
40727 49111 {}
40727 49359 {}
40727 49509 {}
40727 49602 {}
40727 49796 {}
40727 49962 {}
40727 50118 {}
40732 40733 {}
40730 40731 {}
40730 41907 {}
40730 41928 {}
40730 42000 {}
40730 42059 {}
40730 42082 {}
40730 42163 {}
40730 42214 {}
40730 42290 {}
40730 45980 {}
40730 46222 {}
40730 46440 {}
40730 46560 {}
40730 46865 {}
40730 46974 {}
40730 47309 {}
40730 47502 {}
40730 47720 {}
40730 47849 {}
40730 48048 {}
40730 48352 {}
40730 48447 {}
40730 48617 {}
40730 48834 {}
40730 48948 {}
40730 49103 {}
40730 49370 {}
40730 49506 {}
40730 49596 {}
40730 49792 {}
40730 49973 {}
40730 50136 {}
40733 40742 {}
40742 40743 {}
40735 40736 {}
40735 41874 {}
40735 41963 {}
40735 42003 {}
40735 42054 {}
40735 42113 {}
40735 42154 {}
40735 42182 {}
40735 42291 {}
40735 45976 {}
40735 46200 {}
40735 46423 {}
40735 46553 {}
40735 46857 {}
40735 46969 {}
40735 47312 {}
40735 47503 {}
40735 47714 {}
40735 47853 {}
40735 48069 {}
40735 48353 {}
40735 48414 {}
40735 48590 {}
40735 48869 {}
40735 48954 {}
40735 49122 {}
40735 49363 {}
40735 49505 {}
40735 49601 {}
40735 49781 {}
40735 49940 {}
40735 50149 {}
40740 40741 {}
40738 40739 {}
40738 41906 {}
40738 41953 {}
40738 41991 {}
40738 42042 {}
40738 42099 {}
40738 42132 {}
40738 42192 {}
40738 42275 {}
40738 45989 {}
40738 46218 {}
40738 46427 {}
40738 46563 {}
40738 46864 {}
40738 46979 {}
40738 47313 {}
40738 47500 {}
40738 47741 {}
40738 47830 {}
40738 48055 {}
40738 48331 {}
40738 48446 {}
40738 48594 {}
40738 48859 {}
40738 48921 {}
40738 49089 {}
40738 49338 {}
40738 49537 {}
40738 49591 {}
40738 49763 {}
40738 49972 {}
40738 50146 {}
40741 40742 {}
40743 40762 {}
40762 40763 {}
40745 40746 {}
40745 41888 {}
40745 41950 {}
40745 41981 {}
40745 42038 {}
40745 42103 {}
40745 42131 {}
40745 42200 {}
40745 42301 {}
40745 46001 {}
40745 46199 {}
40745 46446 {}
40745 46537 {}
40745 46862 {}
40745 46964 {}
40745 47319 {}
40745 47511 {}
40745 47736 {}
40745 47826 {}
40745 48060 {}
40745 48367 {}
40745 48419 {}
40745 48607 {}
40745 48856 {}
40745 48935 {}
40745 49094 {}
40745 49351 {}
40745 49528 {}
40745 49592 {}
40745 49769 {}
40745 49954 {}
40745 50123 {}
40750 40751 {}
40748 40749 {}
40748 41879 {}
40748 41964 {}
40748 42014 {}
40748 42049 {}
40748 42088 {}
40748 42128 {}
40748 42203 {}
40748 42268 {}
40748 46012 {}
40748 46195 {}
40748 46436 {}
40748 46559 {}
40748 46855 {}
40748 46990 {}
40748 47290 {}
40748 47514 {}
40748 47732 {}
40748 47827 {}
40748 48038 {}
40748 48363 {}
40748 48441 {}
40748 48585 {}
40748 48870 {}
40748 48944 {}
40748 49100 {}
40748 49374 {}
40748 49527 {}
40748 49628 {}
40748 49774 {}
40748 49945 {}
40748 50139 {}
40751 40760 {}
40760 40761 {}
40753 40754 {}
40753 41900 {}
40753 41938 {}
40753 41988 {}
40753 42063 {}
40753 42091 {}
40753 42141 {}
40753 42177 {}
40753 42264 {}
40753 46008 {}
40753 46231 {}
40753 46449 {}
40753 46554 {}
40753 46859 {}
40753 46965 {}
40753 47322 {}
40753 47506 {}
40753 47742 {}
40753 47838 {}
40753 48033 {}
40753 48366 {}
40753 48428 {}
40753 48616 {}
40753 48844 {}
40753 48925 {}
40753 49115 {}
40753 49347 {}
40753 49541 {}
40753 49595 {}
40753 49795 {}
40753 49966 {}
40753 50117 {}
40758 40759 {}
40756 40757 {}
40756 41910 {}
40756 41932 {}
40756 42010 {}
40756 42028 {}
40756 42077 {}
40756 42150 {}
40756 42187 {}
40756 42297 {}
40756 46011 {}
40756 46228 {}
40756 46413 {}
40756 46550 {}
40756 46868 {}
40756 46986 {}
40756 47323 {}
40756 47498 {}
40756 47713 {}
40756 47820 {}
40756 48047 {}
40756 48330 {}
40756 48415 {}
40756 48580 {}
40756 48838 {}
40756 48947 {}
40756 49112 {}
40756 49369 {}
40756 49542 {}
40756 49627 {}
40756 49786 {}
40756 49976 {}
40756 50140 {}
40759 40760 {}
40761 40762 {}
40763 40764 {}
40765 41871 {}
41870 41872 {}
41870 42262 {}
41871 41872 {}
40768 41715 {}
40768 46253 {}
40768 46255 {}
41821 41822 {}
46252 46256 {}
46254 46257 {}
41715 41822 {}
41715 41825 {}
46253 46256 {}
46255 46257 {}
40771 40772 {}
40771 40786 {}
40772 40787 {}
40786 40788 {}
40786 41830 {}
40787 40788 {}
40775 40781 {}
40775 40783 {}
40775 41775 {}
40780 40784 {}
40782 40785 {}
41803 41804 {}
40781 40784 {}
40783 40785 {}
41775 41804 {}
41775 41807 {}
40778 40779 {}
40778 40780 {}
40778 40783 {}
40779 40781 {}
40779 40782 {}
40784 40786 {}
40784 47914 {}
40784 47916 {}
40785 40787 {}
40785 47915 {}
40785 47917 {}
47914 47918 {}
47916 47919 {}
47915 47918 {}
47917 47919 {}
40788 40789 {}
40788 41706 {}
41830 41831 {}
41830 41850 {}
41830 41853 {}
41830 42334 {}
40789 41705 {}
41706 41707 {}
41705 41707 {}
41705 41830 {}
40792 40793 {}
40792 40808 {}
40793 40807 {}
40808 41701 {}
40808 41704 {}
40808 41719 {}
40807 41702 {}
40807 41703 {}
40807 41719 {}
40796 40802 {}
40796 40804 {}
40796 41785 {}
40801 40805 {}
40803 40806 {}
41797 41798 {}
40802 40805 {}
40804 40806 {}
41785 41798 {}
41785 41801 {}
40799 40800 {}
40799 40801 {}
40799 40804 {}
40800 40802 {}
40800 40803 {}
40805 40808 {}
40805 47807 {}
40806 40807 {}
40806 47808 {}
47807 47809 {}
47808 47809 {}
41702 41704 {}
41703 41706 {}
41719 41720 {}
41719 41721 {}
41719 41723 {}
41701 41703 {}
41704 41705 {}
40811 40812 {}
40811 40826 {}
40812 40827 {}
40826 40828 {}
40826 41699 {}
40827 40828 {}
40815 40821 {}
40815 40823 {}
40815 41795 {}
40820 40824 {}
40822 40825 {}
42223 42224 {}
40821 40824 {}
40823 40825 {}
41795 41796 {}
41795 42173 {}
41795 42224 {}
40818 40819 {}
40818 40820 {}
40818 40823 {}
40819 40821 {}
40819 40822 {}
40824 40826 {}
40824 47593 {}
40824 47595 {}
40825 40827 {}
40825 47594 {}
40825 47596 {}
47593 47597 {}
47595 47598 {}
47594 47597 {}
47596 47598 {}
40828 40829 {}
40828 41740 {}
41699 41700 {}
41699 41702 {}
41699 41721 {}
41699 41724 {}
40829 41698 {}
41740 41741 {}
41698 41699 {}
41698 41741 {}
40832 40833 {}
40832 41350 {}
40833 41351 {}
41350 41352 {}
41350 41696 {}
41351 41352 {}
40836 40837 {}
40836 41345 {}
40836 41347 {}
40837 41344 {}
40837 41346 {}
41345 41348 {}
41347 41349 {}
41344 41348 {}
41346 41349 {}
40840 40841 {}
40841 40846 {}
40846 40847 {}
40844 40845 {}
40845 40846 {}
40847 40858 {}
40858 40859 {}
40850 40851 {}
40851 40856 {}
40856 40857 {}
40854 40855 {}
40855 40856 {}
40857 40858 {}
40859 40882 {}
40882 40883 {}
40882 40962 {}
40862 40863 {}
40863 40868 {}
40868 40869 {}
40866 40867 {}
40867 40868 {}
40869 40880 {}
40880 40881 {}
40872 40873 {}
40873 40878 {}
40878 40879 {}
40876 40877 {}
40877 40878 {}
40879 40880 {}
40881 40882 {}
40883 41260 {}
40962 41261 {}
40962 41264 {}
41260 41261 {}
40885 40890 {}
40891 40892 {}
40890 40892 {}
40890 41266 {}
40888 40889 {}
40888 40890 {}
40888 47888 {}
40888 47891 {}
40889 40891 {}
40889 47889 {}
40889 47890 {}
47888 47892 {}
47891 47893 {}
47889 47892 {}
47890 47893 {}
40892 40893 {}
40892 40959 {}
41266 41267 {}
41266 41333 {}
41266 41335 {}
40893 40958 {}
40959 40960 {}
40958 40960 {}
40958 41266 {}
40895 40901 {}
40900 40955 {}
40900 40956 {}
40900 41009 {}
40901 40954 {}
40901 40957 {}
40901 41009 {}
40898 40899 {}
40898 40901 {}
40898 47783 {}
40898 47786 {}
40899 40900 {}
40899 47784 {}
40899 47785 {}
47783 47787 {}
47786 47788 {}
47784 47787 {}
47785 47788 {}
40955 40957 {}
40956 40959 {}
41009 41010 {}
41009 41011 {}
41009 41013 {}
40954 40956 {}
40957 40958 {}
40903 40908 {}
40909 40910 {}
40908 40910 {}
40908 40952 {}
40906 40907 {}
40906 40908 {}
40906 47571 {}
40906 47574 {}
40907 40909 {}
40907 47572 {}
40907 47573 {}
47571 47575 {}
47574 47576 {}
47572 47575 {}
47573 47576 {}
40910 40911 {}
40910 41067 {}
40952 40953 {}
40952 40955 {}
40952 41011 {}
40952 41014 {}
40911 40951 {}
41067 41068 {}
40951 40952 {}
40951 41068 {}
40913 40919 {}
40918 40948 {}
40918 40949 {}
40918 41117 {}
40919 40947 {}
40919 40950 {}
40919 41117 {}
40916 40917 {}
40916 40919 {}
40916 47363 {}
40916 47366 {}
40917 40918 {}
40917 47364 {}
40917 47365 {}
47363 47367 {}
47366 47368 {}
47364 47367 {}
47365 47368 {}
40948 40950 {}
40949 41067 {}
41117 41118 {}
41117 41119 {}
41117 41121 {}
40947 40949 {}
40950 40951 {}
40921 40926 {}
40927 40928 {}
40926 40928 {}
40926 40945 {}
40924 40925 {}
40924 40926 {}
40924 47037 {}
40924 47040 {}
40925 40927 {}
40925 47038 {}
40925 47039 {}
47037 47041 {}
47040 47042 {}
47038 47041 {}
47039 47042 {}
40928 40929 {}
40928 41175 {}
40945 40946 {}
40945 40948 {}
40945 41120 {}
40945 41121 {}
40929 40944 {}
41175 41176 {}
40944 40945 {}
40944 41176 {}
40931 40937 {}
40936 40941 {}
40936 40942 {}
40936 41228 {}
40937 40940 {}
40937 40943 {}
40937 41228 {}
40934 40935 {}
40934 40937 {}
40934 46929 {}
40934 46932 {}
40935 40936 {}
40935 46930 {}
40935 46931 {}
46929 46933 {}
46932 46934 {}
46930 46933 {}
46931 46934 {}
40941 40943 {}
40942 41175 {}
41228 41229 {}
41228 41230 {}
41228 41232 {}
40940 40942 {}
40943 40944 {}
40939 40940 {}
40939 41230 {}
40939 41233 {}
41231 41234 {}
41232 41235 {}
41230 41234 {}
41233 41235 {}
41176 41177 {}
41176 41179 {}
40946 40947 {}
40946 41119 {}
40946 41122 {}
41120 41123 {}
41121 41124 {}
41119 41123 {}
41122 41124 {}
41068 41069 {}
41068 41251 {}
40953 40954 {}
40953 41012 {}
40953 41013 {}
41011 41015 {}
41014 41016 {}
41012 41015 {}
41013 41016 {}
40960 40961 {}
40960 41260 {}
40961 40962 {}
41261 41262 {}
41261 41358 {}
41264 41265 {}
41264 41338 {}
41264 41340 {}
40965 40966 {}
40966 40971 {}
40971 40972 {}
40969 40970 {}
40970 40971 {}
40972 40983 {}
40983 40984 {}
40975 40976 {}
40976 40981 {}
40981 40982 {}
40979 40980 {}
40980 40981 {}
40982 40983 {}
40984 41007 {}
41007 41008 {}
41007 41017 {}
40987 40988 {}
40988 40993 {}
40993 40994 {}
40991 40992 {}
40992 40993 {}
40994 41005 {}
41005 41006 {}
40997 40998 {}
40998 41003 {}
41003 41004 {}
41001 41002 {}
41002 41003 {}
41004 41005 {}
41006 41007 {}
41008 41018 {}
41017 41019 {}
41017 41258 {}
41018 41019 {}
41010 41012 {}
41010 41014 {}
41015 41017 {}
41016 41018 {}
41019 41020 {}
41019 41379 {}
41258 41259 {}
41258 41263 {}
41020 41257 {}
41379 41380 {}
41257 41258 {}
41257 41380 {}
41023 41024 {}
41024 41029 {}
41029 41030 {}
41027 41028 {}
41028 41029 {}
41030 41041 {}
41041 41042 {}
41033 41034 {}
41034 41039 {}
41039 41040 {}
41037 41038 {}
41038 41039 {}
41040 41041 {}
41042 41065 {}
41065 41066 {}
41065 41070 {}
41045 41046 {}
41046 41051 {}
41051 41052 {}
41049 41050 {}
41050 41051 {}
41052 41063 {}
41063 41064 {}
41055 41056 {}
41056 41061 {}
41061 41062 {}
41059 41060 {}
41060 41061 {}
41062 41063 {}
41064 41065 {}
41066 41251 {}
41070 41252 {}
41070 41255 {}
41251 41252 {}
41069 41070 {}
41252 41253 {}
41252 41400 {}
41255 41256 {}
41255 41257 {}
41103 41104 {}
41101 41102 {}
41087 41088 {}
41089 41090 {}
41105 41106 {}
41109 41110 {}
41093 41094 {}
41095 41096 {}
41088 41091 {}
41091 41092 {}
41090 41091 {}
41092 41099 {}
41099 41100 {}
41094 41097 {}
41097 41098 {}
41096 41097 {}
41098 41099 {}
41100 41115 {}
41115 41116 {}
41115 41125 {}
41102 41111 {}
41111 41112 {}
41104 41107 {}
41107 41108 {}
41106 41107 {}
41108 41113 {}
41113 41114 {}
41110 41111 {}
41112 41113 {}
41114 41115 {}
41116 41126 {}
41125 41127 {}
41125 41249 {}
41126 41127 {}
41118 41120 {}
41118 41122 {}
41123 41126 {}
41124 41125 {}
41127 41128 {}
41127 41421 {}
41249 41250 {}
41249 41254 {}
41128 41248 {}
41421 41422 {}
41248 41249 {}
41248 41422 {}
41131 41132 {}
41132 41137 {}
41137 41138 {}
41135 41136 {}
41136 41137 {}
41138 41149 {}
41149 41150 {}
41141 41142 {}
41142 41147 {}
41147 41148 {}
41145 41146 {}
41146 41147 {}
41148 41149 {}
41150 41173 {}
41173 41174 {}
41173 41178 {}
41153 41154 {}
41154 41159 {}
41159 41160 {}
41157 41158 {}
41158 41159 {}
41160 41171 {}
41171 41172 {}
41163 41164 {}
41164 41169 {}
41169 41170 {}
41167 41168 {}
41168 41169 {}
41170 41171 {}
41172 41173 {}
41174 41179 {}
41178 41180 {}
41178 41246 {}
41179 41180 {}
41177 41178 {}
41180 41181 {}
41180 41442 {}
41246 41247 {}
41246 41248 {}
41181 41245 {}
41442 41443 {}
41245 41246 {}
41245 41443 {}
41184 41185 {}
41185 41190 {}
41190 41191 {}
41188 41189 {}
41189 41190 {}
41191 41202 {}
41202 41203 {}
41194 41195 {}
41195 41200 {}
41200 41201 {}
41198 41199 {}
41199 41200 {}
41201 41202 {}
41203 41226 {}
41226 41227 {}
41226 41236 {}
41206 41207 {}
41207 41212 {}
41212 41213 {}
41210 41211 {}
41211 41212 {}
41213 41224 {}
41224 41225 {}
41216 41217 {}
41217 41222 {}
41222 41223 {}
41220 41221 {}
41221 41222 {}
41223 41224 {}
41225 41226 {}
41227 41239 {}
41236 41240 {}
41236 41243 {}
41239 41240 {}
41229 41231 {}
41229 41233 {}
41234 41239 {}
41235 41236 {}
41240 41241 {}
41240 41463 {}
41243 41244 {}
41243 41245 {}
41238 41463 {}
41242 41243 {}
41242 41464 {}
41463 41464 {}
41241 41242 {}
41464 41465 {}
41464 41470 {}
41464 41472 {}
41464 49147 {}
41244 41442 {}
41443 41444 {}
41443 41449 {}
41443 41451 {}
41443 49393 {}
41247 41421 {}
41422 41423 {}
41422 41428 {}
41422 41430 {}
41422 49563 {}
41250 41400 {}
41254 41255 {}
41254 41401 {}
41400 41401 {}
41253 41254 {}
41401 41402 {}
41401 41407 {}
41401 41409 {}
41401 49647 {}
41256 41379 {}
41380 41381 {}
41380 41386 {}
41380 41388 {}
41380 49822 {}
41259 41358 {}
41263 41264 {}
41263 41359 {}
41358 41359 {}
41262 41263 {}
41359 41360 {}
41359 41365 {}
41359 41367 {}
41359 49996 {}
41265 41339 {}
41265 41341 {}
41338 41342 {}
41340 41343 {}
41339 41342 {}
41341 41343 {}
41267 41332 {}
41267 41334 {}
41333 41336 {}
41335 41337 {}
41332 41336 {}
41334 41337 {}
41270 41271 {}
41271 41276 {}
41276 41277 {}
41274 41275 {}
41275 41276 {}
41277 41288 {}
41288 41289 {}
41280 41281 {}
41281 41286 {}
41286 41287 {}
41284 41285 {}
41285 41286 {}
41287 41288 {}
41289 41312 {}
41312 41313 {}
41312 41327 {}
41312 41328 {}
41292 41293 {}
41293 41298 {}
41298 41299 {}
41296 41297 {}
41297 41298 {}
41299 41310 {}
41310 41311 {}
41302 41303 {}
41303 41308 {}
41308 41309 {}
41306 41307 {}
41307 41308 {}
41309 41310 {}
41311 41312 {}
41313 41326 {}
41313 41329 {}
41327 41330 {}
41328 41331 {}
41326 41330 {}
41329 41331 {}
41315 41321 {}
41315 41322 {}
41320 41324 {}
41323 41325 {}
41321 41324 {}
41322 41325 {}
41318 41319 {}
41318 41321 {}
41318 41323 {}
41318 48110 {}
41318 48112 {}
41319 41320 {}
41319 41322 {}
41319 48109 {}
41319 48111 {}
48110 48113 {}
48112 48114 {}
48109 48113 {}
48111 48114 {}
41324 41326 {}
41324 41328 {}
41325 41327 {}
41325 41329 {}
41330 41333 {}
41330 41334 {}
41331 41332 {}
41331 41335 {}
41336 41339 {}
41336 41340 {}
41337 41338 {}
41337 41341 {}
41342 41344 {}
41342 41347 {}
41342 50168 {}
41343 41345 {}
41343 41346 {}
41343 50169 {}
50168 50170 {}
50169 50170 {}
41348 41350 {}
41348 47385 {}
41348 47388 {}
41349 41351 {}
41349 47386 {}
41349 47387 {}
47385 47389 {}
47388 47390 {}
47386 47389 {}
47387 47390 {}
41352 41353 {}
41352 41753 {}
41696 41697 {}
41696 41698 {}
41353 41695 {}
41753 41754 {}
41695 41696 {}
41695 41754 {}
41356 41357 {}
41356 41371 {}
41357 41372 {}
41371 41373 {}
41371 41693 {}
41372 41373 {}
41360 41366 {}
41360 41368 {}
41360 49995 {}
41365 41369 {}
41367 41370 {}
49996 49997 {}
41366 41369 {}
41368 41370 {}
49995 49997 {}
49995 50111 {}
41363 41364 {}
41363 41365 {}
41363 41368 {}
41364 41366 {}
41364 41367 {}
41369 41371 {}
41369 47063 {}
41369 47065 {}
41370 41372 {}
41370 47064 {}
41370 47066 {}
47063 47067 {}
47065 47068 {}
47064 47067 {}
47066 47068 {}
41373 41374 {}
41373 41766 {}
41693 41694 {}
41693 41695 {}
41374 41692 {}
41766 41767 {}
41692 41693 {}
41692 41767 {}
41377 41378 {}
41377 41392 {}
41378 41393 {}
41392 41394 {}
41392 41690 {}
41393 41394 {}
41381 41387 {}
41381 41389 {}
41381 49821 {}
41386 41390 {}
41388 41391 {}
49822 49823 {}
49822 49999 {}
49822 50002 {}
41387 41390 {}
41389 41391 {}
49821 49823 {}
49821 50000 {}
49821 50001 {}
41384 41385 {}
41384 41386 {}
41384 41389 {}
41385 41387 {}
41385 41388 {}
41390 41392 {}
41390 46953 {}
41390 46956 {}
41391 41393 {}
41391 46954 {}
41391 46955 {}
46953 46957 {}
46956 46958 {}
46954 46957 {}
46955 46958 {}
41394 41395 {}
41394 41776 {}
41690 41691 {}
41690 41692 {}
41395 41689 {}
41776 41777 {}
41689 41690 {}
41689 41777 {}
41398 41399 {}
41398 41413 {}
41399 41414 {}
41413 41415 {}
41413 41687 {}
41414 41415 {}
41402 41408 {}
41402 41410 {}
41402 49646 {}
41407 41411 {}
41409 41412 {}
49647 49648 {}
41408 41411 {}
41410 41412 {}
49646 49648 {}
49646 49805 {}
41405 41406 {}
41405 41407 {}
41405 41410 {}
41406 41408 {}
41406 41409 {}
41411 41413 {}
41411 46626 {}
41411 46629 {}
41412 41414 {}
41412 46627 {}
41412 46628 {}
46626 46630 {}
46629 46631 {}
46627 46630 {}
46628 46631 {}
41415 41416 {}
41415 41786 {}
41687 41688 {}
41687 41689 {}
41416 41686 {}
41786 41787 {}
41686 41687 {}
41686 41787 {}
41419 41420 {}
41419 41434 {}
41420 41435 {}
41434 41436 {}
41434 41684 {}
41435 41436 {}
41423 41429 {}
41423 41431 {}
41423 49562 {}
41428 41432 {}
41430 41433 {}
49563 49564 {}
49563 49651 {}
49563 49652 {}
41429 41432 {}
41431 41433 {}
49562 49564 {}
49562 49650 {}
49562 49653 {}
41426 41427 {}
41426 41428 {}
41426 41431 {}
41427 41429 {}
41427 41430 {}
41432 41434 {}
41432 46512 {}
41432 46514 {}
41433 41435 {}
41433 46513 {}
41433 46515 {}
46512 46516 {}
46514 46517 {}
46513 46516 {}
46515 46517 {}
41436 41437 {}
41436 50159 {}
41684 41685 {}
41684 41686 {}
41437 41683 {}
50159 50160 {}
41683 41684 {}
41683 50160 {}
41440 41441 {}
41440 41455 {}
41441 41456 {}
41455 41457 {}
41455 41681 {}
41456 41457 {}
41444 41450 {}
41444 41452 {}
41444 49392 {}
41449 41453 {}
41451 41454 {}
49393 49394 {}
41450 41453 {}
41452 41454 {}
49392 49394 {}
49392 49551 {}
41447 41448 {}
41447 41449 {}
41447 41452 {}
41448 41450 {}
41448 41451 {}
41453 41455 {}
41453 46296 {}
41453 46298 {}
41454 41456 {}
41454 46297 {}
41454 46299 {}
46296 46300 {}
46298 46301 {}
46297 46300 {}
46299 46301 {}
41457 41458 {}
41457 49986 {}
41681 41682 {}
41681 41683 {}
41458 41680 {}
49986 49987 {}
41680 41681 {}
41680 49987 {}
41461 41462 {}
41461 41476 {}
41462 41477 {}
41476 41677 {}
41476 41678 {}
41476 49807 {}
41477 41676 {}
41477 41679 {}
41477 49807 {}
41465 41471 {}
41465 41473 {}
41465 49146 {}
41470 41474 {}
41472 41475 {}
49147 49148 {}
49147 49397 {}
49147 49398 {}
41471 41474 {}
41473 41475 {}
49146 49148 {}
49146 49396 {}
49146 49399 {}
41468 41469 {}
41468 41470 {}
41468 41473 {}
41469 41471 {}
41469 41472 {}
41474 41476 {}
41474 46076 {}
41474 46079 {}
41475 41477 {}
41475 46077 {}
41475 46078 {}
46076 46080 {}
46079 46081 {}
46077 46080 {}
46078 46081 {}
41677 41679 {}
41678 41680 {}
49807 49808 {}
49807 49809 {}
49807 49812 {}
41676 41678 {}
41679 49986 {}
41480 41481 {}
41480 41482 {}
41481 41670 {}
41671 41672 {}
41671 49637 {}
41674 41675 {}
41674 41676 {}
41674 49810 {}
41674 49812 {}
41485 41486 {}
41485 41500 {}
41486 41501 {}
41500 41502 {}
41500 41668 {}
41501 41502 {}
41489 41490 {}
41489 41494 {}
41489 41497 {}
41490 41495 {}
41490 41496 {}
41494 41498 {}
41497 41499 {}
41495 41498 {}
41496 41499 {}
41493 41495 {}
41493 41497 {}
41493 48890 {}
48891 48892 {}
48891 48981 {}
48891 48982 {}
48890 48892 {}
48890 48980 {}
48890 48983 {}
41498 41500 {}
41498 50429 {}
41499 41501 {}
41499 50430 {}
50429 50431 {}
50430 50431 {}
41502 41503 {}
41502 49553 {}
41668 41669 {}
41668 41673 {}
41503 41667 {}
49553 49554 {}
41667 41668 {}
41667 49554 {}
41506 41507 {}
41506 41521 {}
41507 41522 {}
41521 41523 {}
41521 41665 {}
41522 41523 {}
41510 41516 {}
41510 41518 {}
41510 48635 {}
41515 41519 {}
41517 41520 {}
48636 48637 {}
41516 41519 {}
41518 41520 {}
48635 48637 {}
48635 48879 {}
41513 41514 {}
41513 41515 {}
41513 41518 {}
41514 41516 {}
41514 41517 {}
41519 41521 {}
41519 50417 {}
41520 41522 {}
41520 50418 {}
50417 50419 {}
50418 50419 {}
41523 41524 {}
41523 49383 {}
41665 41666 {}
41665 41667 {}
41524 41664 {}
49383 49384 {}
41664 41665 {}
41664 49384 {}
41527 41528 {}
41527 41542 {}
41528 41543 {}
41542 41544 {}
41542 41662 {}
41543 41544 {}
41531 41532 {}
41531 41536 {}
41531 41539 {}
41532 41537 {}
41532 41538 {}
41536 41540 {}
41539 41541 {}
41537 41540 {}
41538 41541 {}
41535 41537 {}
41535 41539 {}
41535 48471 {}
48472 48473 {}
48472 48640 {}
48472 48641 {}
48471 48473 {}
48471 48639 {}
48471 48642 {}
41540 41542 {}
41540 50391 {}
41541 41543 {}
41541 50392 {}
50391 50393 {}
50392 50393 {}
41544 41545 {}
41544 49137 {}
41662 41663 {}
41662 41664 {}
41545 41661 {}
49137 49138 {}
41661 41662 {}
41661 49138 {}
41548 41549 {}
41548 41563 {}
41549 41655 {}
41563 41656 {}
41563 41659 {}
41655 41656 {}
41552 41558 {}
41552 41560 {}
41552 48387 {}
41557 41561 {}
41559 41562 {}
48388 48389 {}
41558 41561 {}
41560 41562 {}
48387 48389 {}
48387 48460 {}
41555 41556 {}
41555 41557 {}
41555 41560 {}
41556 41558 {}
41556 41559 {}
41561 41563 {}
41561 50379 {}
41562 41655 {}
41562 50380 {}
50379 50381 {}
50380 50381 {}
41656 41657 {}
41656 48967 {}
41659 41660 {}
41659 41661 {}
41566 41567 {}
41566 41581 {}
41567 41582 {}
41581 41583 {}
41581 41653 {}
41582 41583 {}
41570 41576 {}
41570 41578 {}
41570 48115 {}
41575 41579 {}
41577 41580 {}
48116 48117 {}
41576 41579 {}
41578 41580 {}
48115 48117 {}
48115 48376 {}
41573 41574 {}
41573 41575 {}
41573 41578 {}
41574 41576 {}
41574 41577 {}
41579 41581 {}
41579 50359 {}
41580 41582 {}
41580 50360 {}
50359 50361 {}
50360 50361 {}
41583 41584 {}
41583 48881 {}
41653 41654 {}
41653 41658 {}
41584 41652 {}
48881 48882 {}
41652 41653 {}
41652 48882 {}
41587 41588 {}
41587 41602 {}
41588 41646 {}
41602 41647 {}
41602 41650 {}
41646 41647 {}
41591 41597 {}
41591 41599 {}
41591 47894 {}
41596 41600 {}
41598 41601 {}
47895 47896 {}
41597 41600 {}
41599 41601 {}
47894 47896 {}
47894 48079 {}
41594 41595 {}
41594 41596 {}
41594 41599 {}
41595 41597 {}
41595 41598 {}
41600 41602 {}
41600 50333 {}
41601 41646 {}
41601 50334 {}
50333 50335 {}
50334 50335 {}
41647 41648 {}
41647 48626 {}
41650 41651 {}
41650 41652 {}
41605 41606 {}
41605 41620 {}
41606 41640 {}
41620 41641 {}
41620 41644 {}
41640 41641 {}
41609 41615 {}
41609 41617 {}
41609 47789 {}
41614 41618 {}
41616 41619 {}
47790 47791 {}
47790 47899 {}
47790 47900 {}
41615 41618 {}
41617 41619 {}
47789 47791 {}
47789 47898 {}
47789 47901 {}
41612 41613 {}
41612 41614 {}
41612 41617 {}
41613 41615 {}
41613 41616 {}
41618 41620 {}
41618 50310 {}
41618 50312 {}
41619 41640 {}
41619 50311 {}
41619 50313 {}
50310 50314 {}
50312 50315 {}
50311 50314 {}
50313 50315 {}
41641 41642 {}
41641 48462 {}
41644 41645 {}
41644 41649 {}
41623 41624 {}
41623 41638 {}
41624 48378 {}
41638 41639 {}
41638 48379 {}
41638 48462 {}
48378 48379 {}
41627 41633 {}
41627 41635 {}
41627 47577 {}
41632 41636 {}
41634 41637 {}
47578 47579 {}
41633 41636 {}
41635 41637 {}
47577 47579 {}
47577 47755 {}
41630 41631 {}
41630 41632 {}
41630 41635 {}
41631 41633 {}
41631 41634 {}
41636 41638 {}
41636 50287 {}
41636 50290 {}
41637 48378 {}
41637 50288 {}
41637 50289 {}
50287 50291 {}
50290 50292 {}
50288 50291 {}
50289 50292 {}
41639 41643 {}
48379 48380 {}
48379 48381 {}
48379 48383 {}
48379 62546 {}
48462 48463 {}
41643 41644 {}
41643 48463 {}
41642 41643 {}
48463 48464 {}
48463 48465 {}
48463 48467 {}
48463 62568 {}
41645 48626 {}
41649 41650 {}
41649 48627 {}
48626 48627 {}
41648 41649 {}
48627 48628 {}
48627 48629 {}
48627 48631 {}
48627 62583 {}
41651 48881 {}
48882 48883 {}
48882 48884 {}
48882 48886 {}
48882 62607 {}
41654 48967 {}
41658 41659 {}
41658 48968 {}
48967 48968 {}
41657 41658 {}
48968 48969 {}
48968 48970 {}
48968 48972 {}
48968 62643 {}
41660 49137 {}
49138 49139 {}
49138 49140 {}
49138 49142 {}
49138 62669 {}
41663 49383 {}
49384 49385 {}
49384 49386 {}
49384 49388 {}
49384 62684 {}
41666 49553 {}
49554 49555 {}
49554 49556 {}
49554 49558 {}
49554 62719 {}
41669 49637 {}
41673 41674 {}
41673 49638 {}
49637 49638 {}
41672 41673 {}
49638 49639 {}
49638 49640 {}
49638 49642 {}
49638 62732 {}
41675 41677 {}
41675 49809 {}
41675 49811 {}
49810 49813 {}
49812 49814 {}
49809 49813 {}
49811 49814 {}
49987 49988 {}
49987 49989 {}
49987 49991 {}
49987 62792 {}
41682 50159 {}
50160 50161 {}
50160 50162 {}
50160 50164 {}
50160 62811 {}
41685 41786 {}
41787 41788 {}
41787 41789 {}
41787 41791 {}
41787 62835 {}
41688 41776 {}
41777 41778 {}
41777 41779 {}
41777 41781 {}
41777 62871 {}
41691 41766 {}
41767 41768 {}
41767 41769 {}
41767 41771 {}
41767 62884 {}
41694 41753 {}
41754 41755 {}
41754 41756 {}
41754 41758 {}
41754 62926 {}
41697 41740 {}
41741 41742 {}
41741 41743 {}
41741 41745 {}
41741 62941 {}
41700 41701 {}
41700 41722 {}
41700 41723 {}
41721 41725 {}
41724 41726 {}
41722 41725 {}
41723 41726 {}
41707 41708 {}
41707 41709 {}
41707 41711 {}
41707 63002 {}
41708 41710 {}
41708 41712 {}
41708 63001 {}
63002 63003 {}
63001 63003 {}
63001 63018 {}
41713 41715 {}
41713 64910 {}
41714 41821 {}
41714 64911 {}
64910 64912 {}
64911 64912 {}
41822 41823 {}
41822 41920 {}
41825 41826 {}
41825 41866 {}
41718 41733 {}
41718 46037 {}
41718 46039 {}
41734 41735 {}
46036 46040 {}
46038 46041 {}
41733 41735 {}
41733 41819 {}
46037 46040 {}
46039 46041 {}
41720 41722 {}
41720 41724 {}
41725 41727 {}
41725 41730 {}
41725 62965 {}
41726 41728 {}
41726 41729 {}
41726 62966 {}
62965 62967 {}
62965 63005 {}
62965 63008 {}
62966 62967 {}
62966 63006 {}
62966 63007 {}
41731 41733 {}
41731 64896 {}
41732 41734 {}
41732 64897 {}
64896 64898 {}
64897 64898 {}
41735 41736 {}
41735 41973 {}
41819 41820 {}
41819 41824 {}
41736 41818 {}
41973 41974 {}
41818 41819 {}
41818 41974 {}
41739 41749 {}
41739 42324 {}
41739 42326 {}
41812 41813 {}
42323 42327 {}
42325 42328 {}
41749 41813 {}
41749 41816 {}
42324 42327 {}
42326 42328 {}
41742 41744 {}
41742 41746 {}
41742 62940 {}
62941 62942 {}
62940 62942 {}
62940 62963 {}
41747 41749 {}
41747 64883 {}
41748 41812 {}
41748 64884 {}
64883 64885 {}
64884 64885 {}
41813 41814 {}
41813 42023 {}
41816 41817 {}
41816 41818 {}
41752 41762 {}
41752 41841 {}
41752 41843 {}
41763 41764 {}
41840 41844 {}
41842 41845 {}
41762 41764 {}
41762 41810 {}
41841 41844 {}
41843 41845 {}
41755 41757 {}
41755 41759 {}
41755 62925 {}
62926 62927 {}
62925 62927 {}
62925 62938 {}
41760 41762 {}
41760 64870 {}
41761 41763 {}
41761 64871 {}
64870 64872 {}
64871 64872 {}
41764 41765 {}
41764 42073 {}
41810 41811 {}
41810 41815 {}
41765 41809 {}
42073 42074 {}
41809 41810 {}
41809 42074 {}
41768 41770 {}
41768 41772 {}
41768 62883 {}
62884 62885 {}
62883 62885 {}
62883 62923 {}
41773 41775 {}
41773 64862 {}
41774 41803 {}
41774 64863 {}
64862 64864 {}
64863 64864 {}
41804 41805 {}
41804 42123 {}
41807 41808 {}
41807 41809 {}
41778 41780 {}
41778 41782 {}
41778 62870 {}
62871 62872 {}
62871 62888 {}
62871 62889 {}
62870 62872 {}
62870 62887 {}
62870 62890 {}
41783 41785 {}
41783 64842 {}
41784 41797 {}
41784 64843 {}
64842 64844 {}
64843 64844 {}
41798 41799 {}
41798 42173 {}
41801 41802 {}
41801 41806 {}
41788 41790 {}
41788 41792 {}
41788 62834 {}
62835 62836 {}
62834 62836 {}
62834 62868 {}
41793 41795 {}
41793 64829 {}
41794 42223 {}
41794 64830 {}
64829 64831 {}
64830 64831 {}
41796 41800 {}
42173 42174 {}
42224 42225 {}
42224 50284 {}
41800 41801 {}
41800 42174 {}
41799 41800 {}
42174 42175 {}
42174 42228 {}
41802 42123 {}
41806 41807 {}
41806 42124 {}
42123 42124 {}
41805 41806 {}
42124 42125 {}
42124 42234 {}
41808 42073 {}
42074 42075 {}
42074 42240 {}
41811 42023 {}
41815 41816 {}
41815 42024 {}
42023 42024 {}
41814 41815 {}
42024 42025 {}
42024 42246 {}
41817 41973 {}
41974 41975 {}
41974 42252 {}
41820 41920 {}
41824 41825 {}
41824 41921 {}
41920 41921 {}
41823 41824 {}
41921 41922 {}
41921 41924 {}
41826 41867 {}
41866 41868 {}
41866 42310 {}
41867 41868 {}
41829 41862 {}
41829 46475 {}
41829 46477 {}
41863 41864 {}
46474 46478 {}
46476 46479 {}
41862 41864 {}
41862 42310 {}
46475 46478 {}
46477 46479 {}
41831 41851 {}
41831 41852 {}
41831 42333 {}
41850 41854 {}
41853 41855 {}
42334 42336 {}
41851 41854 {}
41852 41855 {}
42333 42335 {}
41834 41835 {}
41834 41846 {}
41835 41847 {}
41846 41848 {}
41846 42333 {}
41846 42336 {}
41847 41848 {}
41847 42334 {}
41847 42335 {}
41838 41839 {}
41838 41840 {}
41838 41843 {}
41839 41841 {}
41839 41842 {}
41844 41846 {}
41844 48131 {}
41844 48134 {}
41845 41847 {}
41845 48132 {}
41845 48133 {}
48131 48135 {}
48134 48136 {}
48132 48135 {}
48133 48136 {}
41848 41849 {}
41848 41850 {}
41848 41852 {}
42336 42337 {}
42335 42338 {}
41849 41851 {}
41849 41853 {}
41854 41856 {}
41854 41859 {}
41854 63020 {}
41855 41857 {}
41855 41858 {}
41855 63021 {}
63020 63022 {}
63020 63043 {}
63021 63022 {}
41860 41862 {}
41860 64499 {}
41861 41863 {}
41861 64500 {}
64499 64501 {}
64500 64501 {}
41864 41865 {}
41864 41867 {}
42310 42311 {}
42310 42351 {}
41865 41866 {}
41868 41869 {}
41868 41871 {}
41869 41870 {}
41872 41873 {}
41872 50426 {}
42262 42263 {}
42262 42359 {}
41873 42261 {}
50426 50427 {}
42261 42262 {}
42261 50427 {}
41876 41877 {}
41877 41882 {}
41882 41883 {}
41880 41881 {}
41881 41882 {}
41883 41894 {}
41894 41895 {}
41886 41887 {}
41887 41892 {}
41892 41893 {}
41890 41891 {}
41891 41892 {}
41893 41894 {}
41895 41918 {}
41918 41919 {}
41918 41923 {}
41898 41899 {}
41899 41904 {}
41904 41905 {}
41902 41903 {}
41903 41904 {}
41905 41916 {}
41916 41917 {}
41908 41909 {}
41909 41914 {}
41914 41915 {}
41912 41913 {}
41913 41914 {}
41915 41916 {}
41917 41918 {}
41919 41924 {}
41923 41925 {}
41923 42259 {}
41924 41925 {}
41922 41923 {}
41925 41926 {}
41925 50414 {}
42259 42260 {}
42259 42261 {}
41926 42258 {}
50414 50415 {}
42258 42259 {}
42258 50415 {}
41929 41930 {}
41930 41935 {}
41935 41936 {}
41933 41934 {}
41934 41935 {}
41936 41947 {}
41947 41948 {}
41939 41940 {}
41940 41945 {}
41945 41946 {}
41943 41944 {}
41944 41945 {}
41946 41947 {}
41948 41971 {}
41971 41972 {}
41971 41976 {}
41951 41952 {}
41952 41957 {}
41957 41958 {}
41955 41956 {}
41956 41957 {}
41958 41969 {}
41969 41970 {}
41961 41962 {}
41962 41967 {}
41967 41968 {}
41965 41966 {}
41966 41967 {}
41968 41969 {}
41970 41971 {}
41972 42252 {}
41976 42253 {}
41976 42256 {}
42252 42253 {}
41975 41976 {}
42253 42254 {}
42253 50388 {}
42256 42257 {}
42256 42258 {}
41979 41980 {}
41980 41985 {}
41985 41986 {}
41983 41984 {}
41984 41985 {}
41986 41997 {}
41997 41998 {}
41989 41990 {}
41990 41995 {}
41995 41996 {}
41993 41994 {}
41994 41995 {}
41996 41997 {}
41998 42021 {}
42021 42022 {}
42021 42026 {}
42001 42002 {}
42002 42007 {}
42007 42008 {}
42005 42006 {}
42006 42007 {}
42008 42019 {}
42019 42020 {}
42011 42012 {}
42012 42017 {}
42017 42018 {}
42015 42016 {}
42016 42017 {}
42018 42019 {}
42020 42021 {}
42022 42246 {}
42026 42247 {}
42026 42250 {}
42246 42247 {}
42025 42026 {}
42247 42248 {}
42247 50376 {}
42250 42251 {}
42250 42255 {}
42029 42030 {}
42030 42035 {}
42035 42036 {}
42033 42034 {}
42034 42035 {}
42036 42047 {}
42047 42048 {}
42039 42040 {}
42040 42045 {}
42045 42046 {}
42043 42044 {}
42044 42045 {}
42046 42047 {}
42048 42071 {}
42071 42072 {}
42071 42076 {}
42051 42052 {}
42052 42057 {}
42057 42058 {}
42055 42056 {}
42056 42057 {}
42058 42069 {}
42069 42070 {}
42061 42062 {}
42062 42067 {}
42067 42068 {}
42065 42066 {}
42066 42067 {}
42068 42069 {}
42070 42071 {}
42072 42240 {}
42076 42241 {}
42076 42244 {}
42240 42241 {}
42075 42076 {}
42241 42242 {}
42241 50356 {}
42244 42245 {}
42244 42249 {}
42079 42080 {}
42080 42085 {}
42085 42086 {}
42083 42084 {}
42084 42085 {}
42086 42097 {}
42097 42098 {}
42089 42090 {}
42090 42095 {}
42095 42096 {}
42093 42094 {}
42094 42095 {}
42096 42097 {}
42098 42121 {}
42121 42122 {}
42121 42126 {}
42101 42102 {}
42102 42107 {}
42107 42108 {}
42105 42106 {}
42106 42107 {}
42108 42119 {}
42119 42120 {}
42111 42112 {}
42112 42117 {}
42117 42118 {}
42115 42116 {}
42116 42117 {}
42118 42119 {}
42120 42121 {}
42122 42234 {}
42126 42235 {}
42126 42238 {}
42234 42235 {}
42125 42126 {}
42235 42236 {}
42235 50330 {}
42238 42239 {}
42238 42243 {}
42129 42130 {}
42130 42135 {}
42135 42136 {}
42133 42134 {}
42134 42135 {}
42136 42147 {}
42147 42148 {}
42139 42140 {}
42140 42145 {}
42145 42146 {}
42143 42144 {}
42144 42145 {}
42146 42147 {}
42148 42171 {}
42171 42172 {}
42171 42176 {}
42151 42152 {}
42152 42157 {}
42157 42158 {}
42155 42156 {}
42156 42157 {}
42158 42169 {}
42169 42170 {}
42161 42162 {}
42162 42167 {}
42167 42168 {}
42165 42166 {}
42166 42167 {}
42168 42169 {}
42170 42171 {}
42172 42228 {}
42176 42229 {}
42176 42232 {}
42228 42229 {}
42175 42176 {}
42229 42230 {}
42229 50307 {}
42232 42233 {}
42232 42237 {}
42179 42180 {}
42180 42185 {}
42185 42186 {}
42183 42184 {}
42184 42185 {}
42186 42197 {}
42197 42198 {}
42189 42190 {}
42190 42195 {}
42195 42196 {}
42193 42194 {}
42194 42195 {}
42196 42197 {}
42198 42221 {}
42221 42222 {}
42221 42226 {}
42201 42202 {}
42202 42207 {}
42207 42208 {}
42205 42206 {}
42206 42207 {}
42208 42219 {}
42219 42220 {}
42211 42212 {}
42212 42217 {}
42217 42218 {}
42215 42216 {}
42216 42217 {}
42218 42219 {}
42220 42221 {}
42222 50284 {}
42226 42227 {}
42226 50285 {}
42226 50307 {}
50284 50285 {}
42225 42226 {}
42227 42231 {}
50285 50286 {}
50285 50287 {}
50285 50289 {}
50307 50308 {}
42231 42232 {}
42231 50308 {}
42230 42231 {}
50308 50309 {}
50308 50311 {}
50308 50312 {}
42233 50330 {}
42237 42238 {}
42237 50331 {}
50330 50331 {}
42236 42237 {}
50331 50332 {}
50331 50333 {}
42239 50356 {}
42243 42244 {}
42243 50357 {}
50356 50357 {}
42242 42243 {}
50357 50358 {}
50357 50359 {}
42245 50376 {}
42249 42250 {}
42249 50377 {}
50376 50377 {}
42248 42249 {}
50377 50378 {}
50377 50379 {}
42251 50388 {}
42255 42256 {}
42255 50389 {}
50388 50389 {}
42254 42255 {}
50389 50390 {}
50389 50391 {}
42257 50414 {}
50415 50416 {}
50415 50417 {}
42260 50426 {}
50427 50428 {}
50427 50429 {}
42263 42360 {}
42359 42361 {}
42359 45973 {}
42360 42361 {}
42266 42267 {}
42267 42272 {}
42272 42273 {}
42270 42271 {}
42271 42272 {}
42273 42284 {}
42284 42285 {}
42276 42277 {}
42277 42282 {}
42282 42283 {}
42280 42281 {}
42281 42282 {}
42283 42284 {}
42285 42308 {}
42308 42309 {}
42308 42355 {}
42288 42289 {}
42289 42294 {}
42294 42295 {}
42292 42293 {}
42293 42294 {}
42295 42306 {}
42306 42307 {}
42298 42299 {}
42299 42304 {}
42304 42305 {}
42302 42303 {}
42303 42304 {}
42305 42306 {}
42307 42308 {}
42309 42356 {}
42355 42357 {}
42355 45973 {}
42356 42357 {}
42311 42352 {}
42351 42353 {}
42351 46021 {}
42352 42353 {}
42314 42347 {}
42314 46587 {}
42314 46589 {}
42348 42349 {}
46586 46590 {}
46588 46591 {}
42347 42349 {}
42347 46021 {}
46587 46590 {}
46589 46591 {}
42317 42318 {}
42317 42329 {}
42318 42330 {}
42329 42331 {}
42329 46026 {}
42330 42331 {}
42321 42322 {}
42321 42323 {}
42321 42326 {}
42322 42324 {}
42322 42325 {}
42327 42329 {}
42327 48403 {}
42327 48406 {}
42328 42330 {}
42328 48404 {}
42328 48405 {}
48403 48407 {}
48406 48408 {}
48404 48407 {}
48405 48408 {}
42331 42332 {}
42331 42338 {}
46026 46027 {}
46026 46046 {}
46026 46049 {}
46026 46263 {}
42332 42337 {}
42338 42339 {}
42337 42339 {}
42337 46026 {}
42339 42340 {}
42339 42341 {}
42339 42343 {}
42339 63046 {}
42340 42342 {}
42340 42344 {}
42340 63045 {}
63046 63047 {}
63045 63047 {}
63045 63078 {}
42345 42347 {}
42345 64512 {}
42346 42348 {}
42346 64513 {}
64512 64514 {}
64513 64514 {}
42349 42350 {}
42349 42352 {}
46021 46022 {}
46021 46063 {}
46021 46065 {}
46021 46281 {}
42350 42351 {}
42353 42354 {}
42353 42356 {}
42354 42355 {}
42357 42358 {}
42357 42360 {}
45973 45974 {}
45973 46072 {}
42358 42359 {}
42361 42362 {}
42361 42363 {}
42361 42365 {}
42362 42364 {}
42362 42366 {}
42362 65829 {}
42367 53947 {}
42367 62544 {}
42368 42369 {}
42368 62546 {}
62544 62545 {}
62544 62547 {}
62544 62572 {}
62546 62547 {}
45862 45863 {}
42371 42374 {}
42371 42407 {}
42371 42415 {}
42371 42427 {}
42374 42375 {}
42407 42408 {}
42415 42416 {}
42427 42428 {}
42373 42374 {}
42373 42432 {}
42373 42442 {}
42373 42445 {}
42432 42433 {}
42442 42443 {}
42445 42446 {}
42375 42376 {}
42375 42804 {}
42375 42857 {}
42375 42903 {}
42375 42939 {}
42375 42988 {}
42375 43051 {}
42375 43098 {}
42375 43148 {}
42375 43224 {}
42375 43288 {}
42375 43323 {}
42375 43369 {}
42375 43441 {}
42375 43463 {}
42375 43518 {}
42375 43606 {}
42375 43635 {}
42375 43710 {}
42375 43746 {}
42375 43778 {}
42375 43838 {}
42375 43874 {}
42375 43928 {}
42375 44093 {}
42375 44357 {}
42375 44478 {}
42375 44513 {}
42375 44599 {}
42375 44636 {}
42375 44697 {}
42375 44786 {}
42384 42385 {}
42378 42381 {}
42378 42388 {}
42378 42393 {}
42378 42415 {}
42381 42382 {}
42388 42389 {}
42393 42394 {}
42380 42381 {}
42380 42424 {}
42380 42442 {}
42380 42453 {}
42424 42425 {}
42453 42454 {}
42382 42383 {}
42382 42805 {}
42382 42835 {}
42382 42885 {}
42382 42944 {}
42382 43013 {}
42382 43055 {}
42382 43094 {}
42382 43144 {}
42382 43203 {}
42382 43274 {}
42382 43312 {}
42382 43380 {}
42382 43419 {}
42382 43499 {}
42382 43521 {}
42382 43592 {}
42382 43656 {}
42382 43687 {}
42382 43723 {}
42382 43777 {}
42382 43823 {}
42382 43909 {}
42382 43959 {}
42382 44108 {}
42382 44345 {}
42382 44466 {}
42382 44514 {}
42382 44600 {}
42382 44621 {}
42382 44711 {}
42382 44761 {}
42385 42398 {}
42398 42399 {}
42387 42388 {}
42387 42402 {}
42387 42435 {}
42387 42445 {}
42402 42403 {}
42435 42436 {}
42389 42390 {}
42389 42794 {}
42389 42848 {}
42389 42882 {}
42389 42967 {}
42389 43023 {}
42389 43062 {}
42389 43097 {}
42389 43147 {}
42389 43213 {}
42389 43256 {}
42389 43311 {}
42389 43376 {}
42389 43436 {}
42389 43466 {}
42389 43553 {}
42389 43585 {}
42389 43653 {}
42389 43706 {}
42389 43724 {}
42389 43782 {}
42389 43860 {}
42389 43900 {}
42389 43950 {}
42389 44114 {}
42389 44344 {}
42389 44477 {}
42389 44539 {}
42389 44578 {}
42389 44654 {}
42389 44706 {}
42389 44765 {}
42396 42397 {}
42391 42392 {}
42392 42393 {}
42392 42412 {}
42392 42432 {}
42392 42450 {}
42412 42413 {}
42450 42451 {}
42394 42395 {}
42394 42773 {}
42394 42851 {}
42394 42892 {}
42394 42966 {}
42394 43010 {}
42394 43040 {}
42394 43104 {}
42394 43154 {}
42394 43199 {}
42394 43252 {}
42394 43327 {}
42394 43387 {}
42394 43432 {}
42394 43489 {}
42394 43540 {}
42394 43575 {}
42394 43646 {}
42394 43673 {}
42394 43756 {}
42394 43788 {}
42394 43834 {}
42394 43888 {}
42394 43960 {}
42394 44087 {}
42394 44331 {}
42394 44459 {}
42394 44550 {}
42394 44574 {}
42394 44632 {}
42394 44685 {}
42394 44787 {}
42397 42398 {}
42399 42422 {}
42422 42423 {}
42401 42402 {}
42401 42427 {}
42401 42450 {}
42401 42453 {}
42403 42404 {}
42403 42798 {}
42403 42847 {}
42403 42913 {}
42403 42935 {}
42403 42991 {}
42403 43054 {}
42403 43120 {}
42403 43170 {}
42403 43208 {}
42403 43255 {}
42403 43333 {}
42403 43355 {}
42403 43442 {}
42403 43472 {}
42403 43543 {}
42403 43602 {}
42403 43620 {}
42403 43696 {}
42403 43737 {}
42403 43787 {}
42403 43850 {}
42403 43873 {}
42403 43924 {}
42403 44118 {}
42403 44366 {}
42403 44455 {}
42403 44523 {}
42403 44577 {}
42403 44644 {}
42403 44678 {}
42403 44760 {}
42410 42411 {}
42405 42406 {}
42406 42407 {}
42406 42412 {}
42406 42424 {}
42406 42435 {}
42408 42409 {}
42408 42772 {}
42408 42836 {}
42408 42907 {}
42408 42957 {}
42408 43014 {}
42408 43045 {}
42408 43125 {}
42408 43175 {}
42408 43235 {}
42408 43287 {}
42408 43337 {}
42408 43391 {}
42408 43409 {}
42408 43467 {}
42408 43522 {}
42408 43580 {}
42408 43652 {}
42408 43678 {}
42408 43755 {}
42408 43785 {}
42408 43856 {}
42408 43910 {}
42408 43938 {}
42408 44083 {}
42408 44341 {}
42408 44488 {}
42408 44524 {}
42408 44589 {}
42408 44648 {}
42408 44700 {}
42408 44764 {}
42411 42420 {}
42420 42421 {}
42413 42414 {}
42413 42777 {}
42413 42861 {}
42413 42908 {}
42413 42948 {}
42413 43001 {}
42413 43077 {}
42413 43126 {}
42413 43176 {}
42413 43209 {}
42413 43262 {}
42413 43334 {}
42413 43377 {}
42413 43414 {}
42413 43476 {}
42413 43531 {}
42413 43593 {}
42413 43657 {}
42413 43688 {}
42413 43759 {}
42413 43775 {}
42413 43855 {}
42413 43887 {}
42413 43945 {}
42413 44109 {}
42413 44353 {}
42413 44482 {}
42413 44527 {}
42413 44568 {}
42413 44653 {}
42413 44679 {}
42413 44792 {}
42418 42419 {}
42416 42417 {}
42416 42782 {}
42416 42862 {}
42416 42895 {}
42416 42945 {}
42416 43002 {}
42416 43063 {}
42416 43093 {}
42416 43143 {}
42416 43198 {}
42416 43273 {}
42416 43324 {}
42416 43381 {}
42416 43435 {}
42416 43484 {}
42416 43532 {}
42416 43581 {}
42416 43621 {}
42416 43677 {}
42416 43760 {}
42416 43781 {}
42416 43846 {}
42416 43878 {}
42416 43949 {}
42416 44092 {}
42416 44367 {}
42416 44456 {}
42416 44528 {}
42416 44595 {}
42416 44622 {}
42416 44688 {}
42416 44775 {}
42419 42420 {}
42421 42422 {}
42423 42462 {}
42462 42463 {}
42462 42768 {}
42425 42426 {}
42425 42787 {}
42425 42829 {}
42425 42918 {}
42425 42938 {}
42425 42997 {}
42425 43067 {}
42425 43129 {}
42425 43179 {}
42425 43230 {}
42425 43284 {}
42425 43328 {}
42425 43354 {}
42425 43410 {}
42425 43495 {}
42425 43549 {}
42425 43607 {}
42425 43634 {}
42425 43695 {}
42425 43745 {}
42425 43773 {}
42425 43827 {}
42425 43899 {}
42425 43937 {}
42425 44104 {}
42425 44335 {}
42425 44481 {}
42425 44518 {}
42425 44590 {}
42425 44643 {}
42425 44689 {}
42425 44796 {}
42430 42431 {}
42428 42429 {}
42428 42783 {}
42428 42840 {}
42428 42914 {}
42428 42971 {}
42428 42998 {}
42428 43041 {}
42428 43130 {}
42428 43180 {}
42428 43202 {}
42428 43277 {}
42428 43338 {}
42428 43365 {}
42428 43445 {}
42428 43485 {}
42428 43527 {}
42428 43584 {}
42428 43643 {}
42428 43709 {}
42428 43727 {}
42428 43786 {}
42428 43837 {}
42428 43906 {}
42428 43934 {}
42428 44105 {}
42428 44334 {}
42428 44470 {}
42428 44536 {}
42428 44563 {}
42428 44658 {}
42428 44707 {}
42428 44771 {}
42431 42440 {}
42440 42441 {}
42433 42434 {}
42433 42795 {}
42433 42826 {}
42433 42896 {}
42433 42949 {}
42433 43009 {}
42433 43066 {}
42433 43103 {}
42433 43153 {}
42433 43221 {}
42433 43266 {}
42433 43306 {}
42433 43368 {}
42433 43424 {}
42433 43477 {}
42433 43539 {}
42433 43603 {}
42433 43642 {}
42433 43705 {}
42433 43733 {}
42433 43780 {}
42433 43833 {}
42433 43895 {}
42433 43946 {}
42433 44119 {}
42433 44362 {}
42433 44492 {}
42433 44549 {}
42433 44585 {}
42433 44631 {}
42433 44701 {}
42433 44797 {}
42438 42439 {}
42436 42437 {}
42436 42776 {}
42436 42839 {}
42436 42917 {}
42436 42956 {}
42436 43024 {}
42436 43072 {}
42436 43107 {}
42436 43157 {}
42436 43231 {}
42436 43265 {}
42436 43315 {}
42436 43359 {}
42436 43446 {}
42436 43488 {}
42436 43554 {}
42436 43570 {}
42436 43631 {}
42436 43700 {}
42436 43734 {}
42436 43774 {}
42436 43824 {}
42436 43896 {}
42436 43956 {}
42436 44115 {}
42436 44356 {}
42436 44487 {}
42436 44546 {}
42436 44567 {}
42436 44626 {}
42436 44674 {}
42436 44793 {}
42439 42440 {}
42441 42460 {}
42460 42461 {}
42443 42444 {}
42443 42786 {}
42443 42852 {}
42443 42891 {}
42443 42934 {}
42443 43020 {}
42443 43073 {}
42443 43116 {}
42443 43166 {}
42443 43234 {}
42443 43261 {}
42443 43305 {}
42443 43390 {}
42443 43420 {}
42443 43462 {}
42443 43550 {}
42443 43597 {}
42443 43647 {}
42443 43674 {}
42443 43728 {}
42443 43783 {}
42443 43859 {}
42443 43883 {}
42443 43923 {}
42443 44082 {}
42443 44352 {}
42443 44465 {}
42443 44545 {}
42443 44596 {}
42443 44647 {}
42443 44684 {}
42443 44782 {}
42448 42449 {}
42446 42447 {}
42446 42808 {}
42446 42858 {}
42446 42881 {}
42446 42961 {}
42446 42992 {}
42446 43076 {}
42446 43108 {}
42446 43158 {}
42446 43225 {}
42446 43278 {}
42446 43301 {}
42446 43364 {}
42446 43413 {}
42446 43494 {}
42446 43544 {}
42446 43596 {}
42446 43630 {}
42446 43699 {}
42446 43738 {}
42446 43779 {}
42446 43828 {}
42446 43884 {}
42446 43927 {}
42446 44086 {}
42446 44340 {}
42446 44460 {}
42446 44517 {}
42446 44573 {}
42446 44635 {}
42446 44710 {}
42446 44783 {}
42449 42458 {}
42458 42459 {}
42451 42452 {}
42451 42809 {}
42451 42825 {}
42451 42904 {}
42451 42960 {}
42451 42987 {}
42451 43044 {}
42451 43115 {}
42451 43165 {}
42451 43220 {}
42451 43283 {}
42451 43316 {}
42451 43386 {}
42451 43431 {}
42451 43473 {}
42451 43517 {}
42451 43574 {}
42451 43625 {}
42451 43684 {}
42451 43749 {}
42451 43776 {}
42451 43845 {}
42451 43905 {}
42451 43933 {}
42451 44097 {}
42451 44363 {}
42451 44469 {}
42451 44535 {}
42451 44586 {}
42451 44657 {}
42451 44696 {}
42451 44770 {}
42456 42457 {}
42454 42455 {}
42454 42799 {}
42454 42830 {}
42454 42886 {}
42454 42970 {}
42454 43019 {}
42454 43050 {}
42454 43119 {}
42454 43169 {}
42454 43212 {}
42454 43251 {}
42454 43302 {}
42454 43358 {}
42454 43423 {}
42454 43498 {}
42454 43528 {}
42454 43571 {}
42454 43624 {}
42454 43683 {}
42454 43750 {}
42454 43784 {}
42454 43849 {}
42454 43877 {}
42454 43955 {}
42454 44096 {}
42454 44330 {}
42454 44491 {}
42454 44540 {}
42454 44564 {}
42454 44625 {}
42454 44675 {}
42454 44774 {}
42457 42458 {}
42459 42460 {}
42461 42462 {}
42463 42769 {}
42768 42770 {}
42768 44080 {}
42769 42770 {}
42465 42470 {}
42471 42472 {}
42470 42472 {}
42470 42750 {}
42468 42469 {}
42468 42470 {}
42468 46162 {}
42468 46165 {}
42469 42471 {}
42469 46163 {}
42469 46164 {}
46162 46166 {}
46165 46167 {}
46163 46166 {}
46164 46167 {}
42472 42473 {}
42472 42818 {}
42750 42751 {}
42750 42762 {}
42750 42765 {}
42750 44139 {}
42473 42749 {}
42818 42819 {}
42749 42750 {}
42749 42819 {}
42475 42481 {}
42480 42746 {}
42480 42747 {}
42480 42871 {}
42481 42745 {}
42481 42748 {}
42481 42871 {}
42478 42479 {}
42478 42481 {}
42478 45945 {}
42478 45947 {}
42479 42480 {}
42479 45944 {}
42479 45946 {}
45945 45948 {}
45947 45949 {}
45944 45948 {}
45946 45949 {}
42746 42748 {}
42747 42818 {}
42871 42872 {}
42871 42873 {}
42745 42747 {}
42748 42749 {}
42483 42488 {}
42489 42490 {}
42488 42490 {}
42488 42743 {}
42486 42487 {}
42486 42488 {}
42486 45833 {}
42486 45836 {}
42487 42489 {}
42487 45834 {}
42487 45835 {}
45833 45837 {}
45836 45838 {}
45834 45837 {}
45835 45838 {}
42490 42491 {}
42490 42927 {}
42743 42744 {}
42743 42746 {}
42743 42874 {}
42491 42742 {}
42927 42928 {}
42742 42743 {}
42742 42928 {}
42493 42499 {}
42498 42739 {}
42498 42740 {}
42498 42980 {}
42499 42738 {}
42499 42741 {}
42499 42980 {}
42496 42497 {}
42496 42499 {}
42496 45349 {}
42496 45351 {}
42497 42498 {}
42497 45348 {}
42497 45350 {}
45349 45352 {}
45351 45353 {}
45348 45352 {}
45350 45353 {}
42739 42741 {}
42740 42927 {}
42980 42981 {}
42980 42982 {}
42738 42740 {}
42741 42742 {}
42502 42503 {}
42502 42506 {}
42502 45201 {}
42502 45204 {}
42503 42507 {}
42503 45202 {}
42503 45203 {}
42506 42508 {}
42506 42736 {}
45201 45205 {}
45204 45206 {}
42507 42508 {}
45202 45205 {}
45203 45206 {}
42505 42506 {}
42508 42509 {}
42508 43033 {}
42736 42737 {}
42736 42739 {}
42736 42983 {}
42509 42735 {}
43033 43034 {}
42735 42736 {}
42735 43034 {}
42511 42517 {}
42516 42732 {}
42516 42733 {}
42516 43086 {}
42517 42731 {}
42517 42734 {}
42517 43086 {}
42514 42515 {}
42514 42517 {}
42514 45219 {}
42514 45222 {}
42515 42516 {}
42515 45220 {}
42515 45221 {}
45219 45223 {}
45222 45224 {}
45220 45223 {}
45221 45224 {}
42732 42734 {}
42733 43033 {}
43086 43087 {}
43086 43088 {}
42731 42733 {}
42734 42735 {}
42519 42524 {}
42525 42526 {}
42524 42526 {}
42524 42729 {}
42522 42523 {}
42522 42524 {}
42522 45235 {}
42522 45238 {}
42523 42525 {}
42523 45236 {}
42523 45237 {}
45235 45239 {}
45238 45240 {}
45236 45239 {}
45237 45240 {}
42526 42527 {}
42526 43139 {}
42729 42730 {}
42729 42732 {}
42729 43089 {}
42527 42728 {}
43139 43140 {}
42728 42729 {}
42728 43140 {}
42529 42535 {}
42534 42725 {}
42534 42726 {}
42534 43189 {}
42535 42724 {}
42535 42727 {}
42535 43189 {}
42532 42533 {}
42532 42535 {}
42532 45248 {}
42532 45251 {}
42533 42534 {}
42533 45249 {}
42533 45250 {}
45248 45252 {}
45251 45253 {}
45249 45252 {}
45250 45253 {}
42725 42727 {}
42726 43139 {}
43189 43190 {}
43189 43191 {}
43189 43193 {}
42724 42726 {}
42727 42728 {}
42537 42542 {}
42543 42544 {}
42542 42544 {}
42542 42722 {}
42540 42541 {}
42540 42542 {}
42540 45261 {}
42540 45264 {}
42541 42543 {}
42541 45262 {}
42541 45263 {}
45261 45265 {}
45264 45266 {}
45262 45265 {}
45263 45266 {}
42544 42545 {}
42544 43244 {}
42722 42723 {}
42722 42725 {}
42722 43192 {}
42722 43193 {}
42545 42721 {}
43244 43245 {}
42721 42722 {}
42721 43245 {}
42547 42552 {}
42553 42554 {}
42552 42554 {}
42552 42719 {}
42550 42551 {}
42550 42552 {}
42550 45271 {}
42550 45274 {}
42551 42553 {}
42551 45272 {}
42551 45273 {}
45271 45275 {}
45274 45276 {}
45272 45275 {}
45273 45276 {}
42554 42555 {}
42554 43297 {}
42719 42720 {}
42719 42721 {}
42555 42718 {}
43297 43298 {}
42718 42719 {}
42718 43298 {}
42557 42562 {}
42563 42564 {}
42562 42564 {}
42562 42716 {}
42560 42561 {}
42560 42562 {}
42560 45281 {}
42560 45284 {}
42561 42563 {}
42561 45282 {}
42561 45283 {}
45281 45285 {}
45284 45286 {}
45282 45285 {}
45283 45286 {}
42564 42565 {}
42564 43347 {}
42716 42717 {}
42716 42718 {}
42565 42715 {}
43347 43348 {}
42715 42716 {}
42715 43348 {}
42567 42573 {}
42572 42712 {}
42572 42713 {}
42572 43400 {}
42573 42711 {}
42573 42714 {}
42573 43400 {}
42570 42571 {}
42570 42573 {}
42570 50248 {}
42570 50251 {}
42571 42572 {}
42571 50249 {}
42571 50250 {}
50248 50252 {}
50251 50253 {}
50249 50252 {}
50250 50253 {}
42712 42714 {}
42713 43347 {}
43400 43401 {}
43400 43402 {}
43400 43404 {}
42711 42713 {}
42714 42715 {}
42575 42580 {}
42581 42582 {}
42580 42582 {}
42580 42709 {}
42578 42579 {}
42578 42580 {}
42578 50071 {}
42578 50074 {}
42579 42581 {}
42579 50072 {}
42579 50073 {}
50071 50075 {}
50074 50076 {}
50072 50075 {}
50073 50076 {}
42582 42583 {}
42582 43455 {}
42709 42710 {}
42709 42712 {}
42709 43403 {}
42709 43404 {}
42583 42708 {}
43455 43456 {}
42708 42709 {}
42708 43456 {}
42585 42591 {}
42590 42705 {}
42590 42706 {}
42590 43508 {}
42591 42704 {}
42591 42707 {}
42591 43508 {}
42588 42589 {}
42588 42591 {}
42588 49904 {}
42588 49907 {}
42589 42590 {}
42589 49905 {}
42589 49906 {}
49904 49908 {}
49907 49909 {}
49905 49908 {}
49906 49909 {}
42705 42707 {}
42706 43455 {}
43508 43509 {}
43508 43510 {}
43508 43512 {}
42704 42706 {}
42707 42708 {}
42593 42598 {}
42698 42699 {}
42598 42699 {}
42598 42702 {}
42596 42597 {}
42596 42598 {}
42596 49724 {}
42596 49727 {}
42597 42698 {}
42597 49725 {}
42597 49726 {}
49724 49728 {}
49727 49729 {}
49725 49728 {}
49726 49729 {}
42699 42700 {}
42699 43563 {}
42702 42703 {}
42702 42705 {}
42702 43510 {}
42702 43513 {}
42600 42605 {}
42606 42607 {}
42605 42607 {}
42605 42696 {}
42603 42604 {}
42603 42605 {}
42603 49474 {}
42603 49477 {}
42604 42606 {}
42604 49475 {}
42604 49476 {}
49474 49478 {}
49477 49479 {}
49475 49478 {}
49476 49479 {}
42607 42608 {}
42607 43616 {}
42696 42697 {}
42696 42701 {}
42608 42695 {}
43616 43617 {}
42695 42696 {}
42695 43617 {}
42610 42615 {}
42616 42617 {}
42615 42617 {}
42615 42693 {}
42613 42614 {}
42613 42615 {}
42613 49304 {}
42613 49307 {}
42614 42616 {}
42614 49305 {}
42614 49306 {}
49304 49308 {}
49307 49309 {}
49305 49308 {}
49306 49309 {}
42617 42618 {}
42617 43666 {}
42693 42694 {}
42693 42695 {}
42618 42692 {}
43666 43667 {}
42692 42693 {}
42692 43667 {}
42620 42625 {}
42626 42627 {}
42625 42627 {}
42625 42690 {}
42623 42624 {}
42623 42625 {}
42623 49222 {}
42623 49225 {}
42624 42626 {}
42624 49223 {}
42624 49224 {}
49222 49226 {}
49225 49227 {}
49223 49226 {}
49224 49227 {}
42627 42628 {}
42627 43719 {}
42690 42691 {}
42690 42692 {}
42628 42689 {}
43719 43720 {}
42689 42690 {}
42689 43720 {}
42630 42635 {}
42683 42684 {}
42635 42684 {}
42635 42687 {}
42633 42634 {}
42633 42635 {}
42633 49054 {}
42633 49057 {}
42634 42683 {}
42634 49055 {}
42634 49056 {}
49054 49058 {}
49057 49059 {}
49055 49058 {}
49056 49059 {}
42684 42685 {}
42684 43769 {}
42687 42688 {}
42687 42689 {}
42637 42642 {}
42643 42644 {}
42642 42644 {}
42642 42681 {}
42640 42641 {}
42640 42642 {}
42640 48802 {}
42640 48805 {}
42641 42643 {}
42641 48803 {}
42641 48804 {}
48802 48806 {}
48805 48807 {}
48803 48806 {}
48804 48807 {}
42644 42645 {}
42644 43819 {}
42681 42682 {}
42681 42686 {}
42645 42680 {}
43819 43820 {}
42680 42681 {}
42680 43820 {}
42647 42652 {}
42674 42675 {}
42652 42675 {}
42652 42678 {}
42650 42651 {}
42650 42652 {}
42650 48713 {}
42650 48716 {}
42651 42674 {}
42651 48714 {}
42651 48715 {}
48713 48717 {}
48716 48718 {}
48714 48717 {}
48715 48718 {}
42675 42676 {}
42675 43869 {}
42678 42679 {}
42678 42680 {}
42654 42659 {}
42668 42669 {}
42659 42669 {}
42659 42672 {}
42657 42658 {}
42657 42659 {}
42657 48547 {}
42657 48550 {}
42658 42668 {}
42658 48548 {}
42658 48549 {}
48547 48551 {}
48550 48552 {}
48548 48551 {}
48549 48552 {}
42669 42670 {}
42669 43919 {}
42672 42673 {}
42672 42677 {}
42661 42666 {}
43969 43970 {}
42666 42667 {}
42666 43919 {}
42666 43970 {}
42664 42665 {}
42664 42666 {}
42664 48301 {}
42664 48304 {}
42665 43969 {}
42665 48302 {}
42665 48303 {}
48301 48305 {}
48304 48306 {}
48302 48305 {}
48303 48306 {}
42667 42671 {}
43919 43920 {}
43970 43971 {}
43970 44305 {}
42671 42672 {}
42671 43920 {}
42670 42671 {}
43920 43921 {}
43920 43974 {}
42673 43869 {}
42677 42678 {}
42677 43870 {}
43869 43870 {}
42676 42677 {}
43870 43871 {}
43870 43980 {}
42679 43819 {}
43820 43821 {}
43820 43986 {}
42682 43769 {}
42686 42687 {}
42686 43770 {}
43769 43770 {}
42685 42686 {}
43770 43771 {}
43770 43992 {}
42688 43719 {}
43720 43721 {}
43720 43998 {}
42691 43666 {}
43667 43668 {}
43667 43670 {}
42694 43616 {}
43617 43618 {}
43617 44007 {}
42697 43563 {}
42701 42702 {}
42701 43564 {}
43563 43564 {}
42700 42701 {}
43564 43565 {}
43564 43567 {}
42703 42704 {}
42703 43511 {}
42703 43512 {}
43510 43514 {}
43513 43515 {}
43511 43514 {}
43512 43515 {}
43456 43457 {}
43456 43459 {}
42710 42711 {}
42710 43402 {}
42710 43405 {}
43403 43406 {}
43404 43407 {}
43402 43406 {}
43405 43407 {}
43348 43349 {}
43348 43351 {}
42717 43297 {}
43298 43299 {}
43298 44034 {}
42720 43244 {}
43245 43246 {}
43245 43248 {}
42723 42724 {}
42723 43191 {}
42723 43194 {}
43192 43195 {}
43193 43196 {}
43191 43195 {}
43194 43196 {}
43140 43141 {}
43140 44049 {}
42730 42731 {}
42730 43088 {}
43089 43090 {}
43088 43090 {}
43034 43035 {}
43034 43037 {}
42737 42738 {}
42737 42982 {}
42983 42984 {}
42982 42984 {}
42928 42929 {}
42928 42931 {}
42744 42745 {}
42744 42873 {}
42874 42875 {}
42873 42875 {}
42819 42820 {}
42819 42822 {}
42751 42763 {}
42751 42764 {}
42751 44138 {}
42762 42766 {}
42765 42767 {}
44139 44141 {}
42763 42766 {}
42764 42767 {}
44138 44140 {}
42753 42759 {}
42758 42760 {}
42758 44139 {}
42758 44140 {}
42759 42760 {}
42759 44138 {}
42759 44141 {}
42756 42757 {}
42756 42759 {}
42756 46385 {}
42756 46387 {}
42757 42758 {}
42757 46384 {}
42757 46386 {}
46385 46388 {}
46387 46389 {}
46384 46388 {}
46386 46389 {}
42760 42761 {}
42760 42762 {}
42760 42764 {}
44140 44143 {}
44141 44142 {}
42761 42763 {}
42761 42765 {}
42766 42768 {}
42767 42769 {}
42770 42771 {}
42770 44979 {}
44080 44081 {}
44080 44150 {}
42771 44079 {}
44979 44980 {}
44079 44080 {}
44079 44980 {}
42774 42775 {}
42775 42780 {}
42780 42781 {}
42778 42779 {}
42779 42780 {}
42781 42792 {}
42792 42793 {}
42784 42785 {}
42785 42790 {}
42790 42791 {}
42788 42789 {}
42789 42790 {}
42791 42792 {}
42793 42816 {}
42816 42817 {}
42816 42821 {}
42796 42797 {}
42797 42802 {}
42802 42803 {}
42800 42801 {}
42801 42802 {}
42803 42814 {}
42814 42815 {}
42806 42807 {}
42807 42812 {}
42812 42813 {}
42810 42811 {}
42811 42812 {}
42813 42814 {}
42815 42816 {}
42817 42822 {}
42821 42823 {}
42821 44077 {}
42822 42823 {}
42820 42821 {}
42823 42824 {}
42823 45000 {}
44077 44078 {}
44077 44079 {}
42824 44076 {}
45000 45001 {}
44076 44077 {}
44076 45001 {}
42827 42828 {}
42828 42833 {}
42833 42834 {}
42831 42832 {}
42832 42833 {}
42834 42845 {}
42845 42846 {}
42837 42838 {}
42838 42843 {}
42843 42844 {}
42841 42842 {}
42842 42843 {}
42844 42845 {}
42846 42869 {}
42869 42870 {}
42869 42877 {}
42849 42850 {}
42850 42855 {}
42855 42856 {}
42853 42854 {}
42854 42855 {}
42856 42867 {}
42867 42868 {}
42859 42860 {}
42860 42865 {}
42865 42866 {}
42863 42864 {}
42864 42865 {}
42866 42867 {}
42868 42869 {}
42870 42878 {}
42877 42879 {}
42877 44074 {}
42878 42879 {}
42872 42874 {}
42875 42876 {}
42875 42878 {}
42876 42877 {}
42879 42880 {}
42879 45025 {}
44074 44075 {}
44074 44076 {}
42880 44073 {}
45025 45026 {}
44073 44074 {}
44073 45026 {}
42883 42884 {}
42884 42889 {}
42889 42890 {}
42887 42888 {}
42888 42889 {}
42890 42901 {}
42901 42902 {}
42893 42894 {}
42894 42899 {}
42899 42900 {}
42897 42898 {}
42898 42899 {}
42900 42901 {}
42902 42925 {}
42925 42926 {}
42925 42930 {}
42905 42906 {}
42906 42911 {}
42911 42912 {}
42909 42910 {}
42910 42911 {}
42912 42923 {}
42923 42924 {}
42915 42916 {}
42916 42921 {}
42921 42922 {}
42919 42920 {}
42920 42921 {}
42922 42923 {}
42924 42925 {}
42926 42931 {}
42930 42932 {}
42930 44071 {}
42931 42932 {}
42929 42930 {}
42932 42933 {}
42932 45042 {}
44071 44072 {}
44071 44073 {}
42933 44070 {}
45042 45043 {}
44070 44071 {}
44070 45043 {}
42936 42937 {}
42937 42942 {}
42942 42943 {}
42940 42941 {}
42941 42942 {}
42943 42954 {}
42954 42955 {}
42946 42947 {}
42947 42952 {}
42952 42953 {}
42950 42951 {}
42951 42952 {}
42953 42954 {}
42955 42978 {}
42978 42979 {}
42978 42986 {}
42958 42959 {}
42959 42964 {}
42964 42965 {}
42962 42963 {}
42963 42964 {}
42965 42976 {}
42976 42977 {}
42968 42969 {}
42969 42974 {}
42974 42975 {}
42972 42973 {}
42973 42974 {}
42975 42976 {}
42977 42978 {}
42979 44064 {}
42986 44065 {}
42986 44068 {}
44064 44065 {}
42981 42983 {}
42984 42985 {}
42984 44064 {}
42985 42986 {}
44065 44066 {}
44065 45060 {}
44068 44069 {}
44068 44070 {}
42989 42990 {}
42990 42995 {}
42995 42996 {}
42993 42994 {}
42994 42995 {}
42996 43007 {}
43007 43008 {}
42999 43000 {}
43000 43005 {}
43005 43006 {}
43003 43004 {}
43004 43005 {}
43006 43007 {}
43008 43031 {}
43031 43032 {}
43031 43036 {}
43011 43012 {}
43012 43017 {}
43017 43018 {}
43015 43016 {}
43016 43017 {}
43018 43029 {}
43029 43030 {}
43021 43022 {}
43022 43027 {}
43027 43028 {}
43025 43026 {}
43026 43027 {}
43028 43029 {}
43030 43031 {}
43032 43037 {}
43036 43038 {}
43036 44062 {}
43037 43038 {}
43035 43036 {}
43038 43039 {}
43038 45081 {}
44062 44063 {}
44062 44067 {}
43039 44061 {}
45081 45082 {}
44061 44062 {}
44061 45082 {}
43042 43043 {}
43043 43048 {}
43048 43049 {}
43046 43047 {}
43047 43048 {}
43049 43060 {}
43060 43061 {}
43052 43053 {}
43053 43058 {}
43058 43059 {}
43056 43057 {}
43057 43058 {}
43059 43060 {}
43061 43084 {}
43084 43085 {}
43084 43092 {}
43064 43065 {}
43065 43070 {}
43070 43071 {}
43068 43069 {}
43069 43070 {}
43071 43082 {}
43082 43083 {}
43074 43075 {}
43075 43080 {}
43080 43081 {}
43078 43079 {}
43079 43080 {}
43081 43082 {}
43083 43084 {}
43085 44055 {}
43092 44056 {}
43092 44059 {}
44055 44056 {}
43087 43089 {}
43090 43091 {}
43090 44055 {}
43091 43092 {}
44056 44057 {}
44056 45099 {}
44059 44060 {}
44059 44061 {}
43095 43096 {}
43096 43101 {}
43101 43102 {}
43099 43100 {}
43100 43101 {}
43102 43113 {}
43113 43114 {}
43105 43106 {}
43106 43111 {}
43111 43112 {}
43109 43110 {}
43110 43111 {}
43112 43113 {}
43114 43137 {}
43137 43138 {}
43137 43142 {}
43117 43118 {}
43118 43123 {}
43123 43124 {}
43121 43122 {}
43122 43123 {}
43124 43135 {}
43135 43136 {}
43127 43128 {}
43128 43133 {}
43133 43134 {}
43131 43132 {}
43132 43133 {}
43134 43135 {}
43136 43137 {}
43138 44049 {}
43142 44050 {}
43142 44053 {}
44049 44050 {}
43141 43142 {}
44050 44051 {}
44050 45117 {}
44053 44054 {}
44053 44058 {}
43145 43146 {}
43146 43151 {}
43151 43152 {}
43149 43150 {}
43150 43151 {}
43152 43163 {}
43163 43164 {}
43155 43156 {}
43156 43161 {}
43161 43162 {}
43159 43160 {}
43160 43161 {}
43162 43163 {}
43164 43187 {}
43187 43188 {}
43187 43197 {}
43167 43168 {}
43168 43173 {}
43173 43174 {}
43171 43172 {}
43172 43173 {}
43174 43185 {}
43185 43186 {}
43177 43178 {}
43178 43183 {}
43183 43184 {}
43181 43182 {}
43182 43183 {}
43184 43185 {}
43186 43187 {}
43188 44043 {}
43197 44044 {}
43197 44047 {}
44043 44044 {}
43190 43192 {}
43190 43194 {}
43195 44043 {}
43196 43197 {}
44044 44045 {}
44044 47230 {}
44047 44048 {}
44047 44052 {}
43200 43201 {}
43201 43206 {}
43206 43207 {}
43204 43205 {}
43205 43206 {}
43207 43218 {}
43218 43219 {}
43210 43211 {}
43211 43216 {}
43216 43217 {}
43214 43215 {}
43215 43216 {}
43217 43218 {}
43219 43242 {}
43242 43243 {}
43242 43247 {}
43222 43223 {}
43223 43228 {}
43228 43229 {}
43226 43227 {}
43227 43228 {}
43229 43240 {}
43240 43241 {}
43232 43233 {}
43233 43238 {}
43238 43239 {}
43236 43237 {}
43237 43238 {}
43239 43240 {}
43241 43242 {}
43243 43248 {}
43247 43249 {}
43247 44041 {}
43248 43249 {}
43246 43247 {}
43249 43250 {}
43249 47118 {}
44041 44042 {}
44041 44046 {}
43250 44040 {}
47118 47119 {}
44040 44041 {}
44040 47119 {}
43253 43254 {}
43254 43259 {}
43259 43260 {}
43257 43258 {}
43258 43259 {}
43260 43271 {}
43271 43272 {}
43263 43264 {}
43264 43269 {}
43269 43270 {}
43267 43268 {}
43268 43269 {}
43270 43271 {}
43272 43295 {}
43295 43296 {}
43295 43300 {}
43275 43276 {}
43276 43281 {}
43281 43282 {}
43279 43280 {}
43280 43281 {}
43282 43293 {}
43293 43294 {}
43285 43286 {}
43286 43291 {}
43291 43292 {}
43289 43290 {}
43290 43291 {}
43292 43293 {}
43294 43295 {}
43296 44034 {}
43300 44035 {}
43300 44038 {}
44034 44035 {}
43299 43300 {}
44035 44036 {}
44035 46794 {}
44038 44039 {}
44038 44040 {}
43303 43304 {}
43304 43309 {}
43309 43310 {}
43307 43308 {}
43308 43309 {}
43310 43321 {}
43321 43322 {}
43313 43314 {}
43314 43319 {}
43319 43320 {}
43317 43318 {}
43318 43319 {}
43320 43321 {}
43322 43345 {}
43345 43346 {}
43345 43350 {}
43325 43326 {}
43326 43331 {}
43331 43332 {}
43329 43330 {}
43330 43331 {}
43332 43343 {}
43343 43344 {}
43335 43336 {}
43336 43341 {}
43341 43342 {}
43339 43340 {}
43340 43341 {}
43342 43343 {}
43344 43345 {}
43346 43351 {}
43350 43352 {}
43350 44032 {}
43351 43352 {}
43349 43350 {}
43352 43353 {}
43352 46683 {}
44032 44033 {}
44032 44037 {}
43353 44031 {}
46683 46684 {}
44031 44032 {}
44031 46684 {}
43356 43357 {}
43357 43362 {}
43362 43363 {}
43360 43361 {}
43361 43362 {}
43363 43374 {}
43374 43375 {}
43366 43367 {}
43367 43372 {}
43372 43373 {}
43370 43371 {}
43371 43372 {}
43373 43374 {}
43375 43398 {}
43398 43399 {}
43398 43408 {}
43378 43379 {}
43379 43384 {}
43384 43385 {}
43382 43383 {}
43383 43384 {}
43385 43396 {}
43396 43397 {}
43388 43389 {}
43389 43394 {}
43394 43395 {}
43392 43393 {}
43393 43394 {}
43395 43396 {}
43397 43398 {}
43399 44025 {}
43408 44026 {}
43408 44029 {}
44025 44026 {}
43401 43403 {}
43401 43405 {}
43406 44025 {}
43407 43408 {}
44026 44027 {}
44026 46355 {}
44029 44030 {}
44029 44031 {}
43411 43412 {}
43412 43417 {}
43417 43418 {}
43415 43416 {}
43416 43417 {}
43418 43429 {}
43429 43430 {}
43421 43422 {}
43422 43427 {}
43427 43428 {}
43425 43426 {}
43426 43427 {}
43428 43429 {}
43430 43453 {}
43453 43454 {}
43453 43458 {}
43433 43434 {}
43434 43439 {}
43439 43440 {}
43437 43438 {}
43438 43439 {}
43440 43451 {}
43451 43452 {}
43443 43444 {}
43444 43449 {}
43449 43450 {}
43447 43448 {}
43448 43449 {}
43450 43451 {}
43452 43453 {}
43454 43459 {}
43458 43460 {}
43458 44023 {}
43459 43460 {}
43457 43458 {}
43460 43461 {}
43460 46133 {}
44023 44024 {}
44023 44028 {}
43461 44022 {}
46133 46134 {}
44022 44023 {}
44022 46134 {}
43464 43465 {}
43465 43470 {}
43470 43471 {}
43468 43469 {}
43469 43470 {}
43471 43482 {}
43482 43483 {}
43474 43475 {}
43475 43480 {}
43480 43481 {}
43478 43479 {}
43479 43480 {}
43481 43482 {}
43483 43506 {}
43506 43507 {}
43506 43516 {}
43486 43487 {}
43487 43492 {}
43492 43493 {}
43490 43491 {}
43491 43492 {}
43493 43504 {}
43504 43505 {}
43496 43497 {}
43497 43502 {}
43502 43503 {}
43500 43501 {}
43501 43502 {}
43503 43504 {}
43505 43506 {}
43507 44016 {}
43516 44017 {}
43516 44020 {}
44016 44017 {}
43509 43511 {}
43509 43513 {}
43514 43516 {}
43515 44016 {}
44017 44018 {}
44017 45915 {}
44020 44021 {}
44020 44022 {}
43519 43520 {}
43520 43525 {}
43525 43526 {}
43523 43524 {}
43524 43525 {}
43526 43537 {}
43537 43538 {}
43529 43530 {}
43530 43535 {}
43535 43536 {}
43533 43534 {}
43534 43535 {}
43536 43537 {}
43538 43561 {}
43561 43562 {}
43561 43566 {}
43541 43542 {}
43542 43547 {}
43547 43548 {}
43545 43546 {}
43546 43547 {}
43548 43559 {}
43559 43560 {}
43551 43552 {}
43552 43557 {}
43557 43558 {}
43555 43556 {}
43556 43557 {}
43558 43559 {}
43560 43561 {}
43562 43567 {}
43566 43568 {}
43566 44014 {}
43567 43568 {}
43565 43566 {}
43568 43569 {}
43568 45804 {}
44014 44015 {}
44014 44019 {}
43569 44013 {}
45804 45805 {}
44013 44014 {}
44013 45805 {}
43572 43573 {}
43573 43578 {}
43578 43579 {}
43576 43577 {}
43577 43578 {}
43579 43590 {}
43590 43591 {}
43582 43583 {}
43583 43588 {}
43588 43589 {}
43586 43587 {}
43587 43588 {}
43589 43590 {}
43591 43614 {}
43614 43615 {}
43614 43619 {}
43594 43595 {}
43595 43600 {}
43600 43601 {}
43598 43599 {}
43599 43600 {}
43601 43612 {}
43612 43613 {}
43604 43605 {}
43605 43610 {}
43610 43611 {}
43608 43609 {}
43609 43610 {}
43611 43612 {}
43613 43614 {}
43615 44007 {}
43619 44008 {}
43619 44011 {}
44007 44008 {}
43618 43619 {}
44008 44009 {}
44008 45319 {}
44011 44012 {}
44011 44013 {}
43622 43623 {}
43623 43628 {}
43628 43629 {}
43626 43627 {}
43627 43628 {}
43629 43640 {}
43640 43641 {}
43632 43633 {}
43633 43638 {}
43638 43639 {}
43636 43637 {}
43637 43638 {}
43639 43640 {}
43641 43664 {}
43664 43665 {}
43664 43669 {}
43644 43645 {}
43645 43650 {}
43650 43651 {}
43648 43649 {}
43649 43650 {}
43651 43662 {}
43662 43663 {}
43654 43655 {}
43655 43660 {}
43660 43661 {}
43658 43659 {}
43659 43660 {}
43661 43662 {}
43663 43664 {}
43665 43670 {}
43669 43671 {}
43669 44005 {}
43670 43671 {}
43668 43669 {}
43671 43672 {}
43671 44258 {}
44005 44006 {}
44005 44010 {}
43672 44004 {}
44258 44259 {}
44004 44005 {}
44004 44259 {}
43675 43676 {}
43676 43681 {}
43681 43682 {}
43679 43680 {}
43680 43681 {}
43682 43693 {}
43693 43694 {}
43685 43686 {}
43686 43691 {}
43691 43692 {}
43689 43690 {}
43690 43691 {}
43692 43693 {}
43694 43717 {}
43717 43718 {}
43717 43722 {}
43697 43698 {}
43698 43703 {}
43703 43704 {}
43701 43702 {}
43702 43703 {}
43704 43715 {}
43715 43716 {}
43707 43708 {}
43708 43713 {}
43713 43714 {}
43711 43712 {}
43712 43713 {}
43714 43715 {}
43716 43717 {}
43718 43998 {}
43722 43999 {}
43722 44002 {}
43998 43999 {}
43721 43722 {}
43999 44000 {}
43999 45208 {}
44002 44003 {}
44002 44004 {}
43725 43726 {}
43726 43731 {}
43731 43732 {}
43729 43730 {}
43730 43731 {}
43732 43743 {}
43743 43744 {}
43735 43736 {}
43736 43741 {}
43741 43742 {}
43739 43740 {}
43740 43741 {}
43742 43743 {}
43744 43767 {}
43767 43768 {}
43767 43772 {}
43747 43748 {}
43748 43753 {}
43753 43754 {}
43751 43752 {}
43752 43753 {}
43754 43765 {}
43765 43766 {}
43757 43758 {}
43758 43763 {}
43763 43764 {}
43761 43762 {}
43762 43763 {}
43764 43765 {}
43766 43767 {}
43768 43992 {}
43772 43993 {}
43772 43996 {}
43992 43993 {}
43771 43772 {}
43993 43994 {}
43993 45229 {}
43996 43997 {}
43996 44001 {}
43805 43806 {}
43803 43804 {}
43789 43790 {}
43797 43798 {}
43807 43808 {}
43811 43812 {}
43791 43792 {}
43795 43796 {}
43790 43793 {}
43793 43794 {}
43792 43793 {}
43794 43801 {}
43801 43802 {}
43796 43799 {}
43799 43800 {}
43798 43799 {}
43800 43801 {}
43802 43817 {}
43817 43818 {}
43817 43822 {}
43804 43813 {}
43813 43814 {}
43806 43809 {}
43809 43810 {}
43808 43809 {}
43810 43815 {}
43815 43816 {}
43812 43813 {}
43814 43815 {}
43816 43817 {}
43818 43986 {}
43822 43987 {}
43822 43990 {}
43986 43987 {}
43821 43822 {}
43987 43988 {}
43987 45242 {}
43990 43991 {}
43990 43995 {}
43825 43826 {}
43826 43831 {}
43831 43832 {}
43829 43830 {}
43830 43831 {}
43832 43843 {}
43843 43844 {}
43835 43836 {}
43836 43841 {}
43841 43842 {}
43839 43840 {}
43840 43841 {}
43842 43843 {}
43844 43867 {}
43867 43868 {}
43867 43872 {}
43847 43848 {}
43848 43853 {}
43853 43854 {}
43851 43852 {}
43852 43853 {}
43854 43865 {}
43865 43866 {}
43857 43858 {}
43858 43863 {}
43863 43864 {}
43861 43862 {}
43862 43863 {}
43864 43865 {}
43866 43867 {}
43868 43980 {}
43872 43981 {}
43872 43984 {}
43980 43981 {}
43871 43872 {}
43981 43982 {}
43981 44265 {}
43984 43985 {}
43984 43989 {}
43875 43876 {}
43876 43881 {}
43881 43882 {}
43879 43880 {}
43880 43881 {}
43882 43893 {}
43893 43894 {}
43885 43886 {}
43886 43891 {}
43891 43892 {}
43889 43890 {}
43890 43891 {}
43892 43893 {}
43894 43917 {}
43917 43918 {}
43917 43922 {}
43897 43898 {}
43898 43903 {}
43903 43904 {}
43901 43902 {}
43902 43903 {}
43904 43915 {}
43915 43916 {}
43907 43908 {}
43908 43913 {}
43913 43914 {}
43911 43912 {}
43912 43913 {}
43914 43915 {}
43916 43917 {}
43918 43974 {}
43922 43975 {}
43922 43978 {}
43974 43975 {}
43921 43922 {}
43975 43976 {}
43975 44286 {}
43978 43979 {}
43978 43983 {}
43925 43926 {}
43926 43931 {}
43931 43932 {}
43929 43930 {}
43930 43931 {}
43932 43943 {}
43943 43944 {}
43935 43936 {}
43936 43941 {}
43941 43942 {}
43939 43940 {}
43940 43941 {}
43942 43943 {}
43944 43967 {}
43967 43968 {}
43967 43972 {}
43947 43948 {}
43948 43953 {}
43953 43954 {}
43951 43952 {}
43952 43953 {}
43954 43965 {}
43965 43966 {}
43957 43958 {}
43958 43963 {}
43963 43964 {}
43961 43962 {}
43962 43963 {}
43964 43965 {}
43966 43967 {}
43968 44305 {}
43972 43973 {}
43972 44286 {}
43972 44306 {}
44305 44306 {}
43971 43972 {}
43973 43977 {}
44286 44287 {}
44306 44307 {}
44306 44312 {}
44306 44314 {}
44306 45715 {}
43977 43978 {}
43977 44287 {}
43976 43977 {}
44287 44288 {}
44287 44293 {}
44287 44295 {}
44287 45289 {}
43979 44265 {}
43983 43984 {}
43983 44266 {}
44265 44266 {}
43982 43983 {}
44266 44267 {}
44266 44272 {}
44266 44274 {}
44266 45295 {}
43985 45242 {}
43989 43990 {}
43989 45243 {}
45242 45243 {}
43988 43989 {}
45243 45244 {}
45243 45255 {}
45243 45332 {}
45243 45334 {}
43991 45229 {}
43995 43996 {}
43995 45230 {}
45229 45230 {}
43994 43995 {}
45230 45231 {}
45230 45304 {}
45230 45815 {}
45230 45817 {}
43997 45208 {}
44001 44002 {}
44001 45209 {}
45208 45209 {}
44000 44001 {}
45209 45210 {}
45209 45226 {}
45209 45928 {}
45209 45930 {}
44003 44258 {}
44259 44260 {}
44259 45313 {}
44259 46144 {}
44259 46146 {}
44006 45319 {}
44010 44011 {}
44010 45320 {}
45319 45320 {}
44009 44010 {}
45320 45321 {}
45320 45355 {}
45320 46368 {}
45320 46370 {}
44012 45804 {}
45805 45806 {}
45805 45840 {}
45805 46694 {}
45805 46696 {}
44015 45915 {}
44019 44020 {}
44019 45916 {}
45915 45916 {}
44018 44019 {}
45916 45917 {}
45916 45951 {}
45916 46807 {}
45916 46809 {}
44021 46133 {}
46134 46135 {}
46134 46169 {}
46134 47129 {}
46134 47131 {}
44024 46355 {}
44028 44029 {}
44028 46356 {}
46355 46356 {}
44027 44028 {}
46356 46357 {}
46356 46391 {}
46356 47243 {}
46356 47245 {}
44030 46683 {}
46684 46685 {}
46684 46719 {}
46684 47454 {}
46684 47456 {}
44033 46794 {}
44037 44038 {}
44037 46795 {}
46794 46795 {}
44036 44037 {}
46795 46796 {}
46795 46830 {}
46795 47664 {}
46795 47666 {}
44039 47118 {}
47119 47120 {}
47119 47154 {}
47119 47977 {}
47119 47979 {}
44042 47230 {}
44046 44047 {}
44046 47231 {}
47230 47231 {}
44045 44046 {}
47231 47232 {}
47231 47264 {}
47231 48198 {}
47231 48200 {}
44048 45117 {}
44052 44053 {}
44052 45118 {}
45117 45118 {}
44051 44052 {}
45118 45119 {}
45118 45124 {}
45118 45126 {}
45118 47475 {}
44054 45099 {}
44058 44059 {}
44058 45100 {}
45099 45100 {}
44057 44058 {}
45100 45101 {}
45100 45106 {}
45100 45108 {}
45100 47685 {}
44060 45081 {}
45082 45083 {}
45082 45088 {}
45082 45090 {}
45082 48002 {}
44063 45060 {}
44067 44068 {}
44067 45061 {}
45060 45061 {}
44066 44067 {}
45061 45062 {}
45061 45067 {}
45061 45069 {}
45061 48223 {}
44069 45042 {}
45043 45044 {}
45043 45049 {}
45043 45051 {}
45043 48308 {}
44072 45025 {}
45026 45027 {}
45026 45028 {}
45026 45030 {}
45026 48554 {}
44075 45000 {}
45001 45002 {}
45001 45007 {}
45001 45009 {}
45001 48720 {}
44078 44979 {}
44980 44981 {}
44980 44986 {}
44980 44988 {}
44980 48809 {}
44081 44151 {}
44150 44152 {}
44150 44729 {}
44151 44152 {}
44084 44085 {}
44085 44090 {}
44090 44091 {}
44088 44089 {}
44089 44090 {}
44091 44102 {}
44102 44103 {}
44094 44095 {}
44095 44100 {}
44100 44101 {}
44098 44099 {}
44099 44100 {}
44101 44102 {}
44103 44126 {}
44126 44127 {}
44126 44146 {}
44106 44107 {}
44107 44112 {}
44112 44113 {}
44110 44111 {}
44111 44112 {}
44113 44124 {}
44124 44125 {}
44116 44117 {}
44117 44122 {}
44122 44123 {}
44120 44121 {}
44121 44122 {}
44123 44124 {}
44125 44126 {}
44127 44147 {}
44146 44148 {}
44146 44729 {}
44147 44148 {}
44129 44134 {}
44135 44136 {}
44134 44136 {}
44134 44430 {}
44132 44133 {}
44132 44134 {}
44132 46712 {}
44132 46715 {}
44133 44135 {}
44133 46713 {}
44133 46714 {}
46712 46716 {}
46715 46717 {}
46713 46716 {}
46714 46717 {}
44136 44137 {}
44136 44143 {}
44430 44431 {}
44430 44433 {}
44430 44722 {}
44430 44725 {}
44137 44142 {}
44143 44144 {}
44142 44144 {}
44142 44430 {}
44144 44145 {}
44144 44147 {}
44145 44146 {}
44148 44149 {}
44148 44151 {}
44729 44730 {}
44729 44734 {}
44149 44150 {}
44152 44153 {}
44152 44158 {}
44152 44160 {}
44152 49061 {}
44153 44159 {}
44153 44161 {}
44153 49060 {}
44158 44162 {}
44160 44163 {}
49061 49062 {}
44159 44162 {}
44161 44163 {}
49060 49062 {}
49060 49217 {}
44156 44157 {}
44156 44158 {}
44156 44161 {}
44157 44159 {}
44157 44160 {}
44162 44974 {}
44162 45855 {}
44162 45858 {}
44163 45162 {}
44163 45856 {}
44163 45857 {}
44974 45163 {}
44974 45166 {}
45855 45859 {}
45858 45860 {}
45162 45163 {}
45856 45859 {}
45857 45860 {}
44164 44165 {}
44165 44168 {}
44165 44207 {}
44165 44218 {}
44165 44226 {}
44168 44169 {}
44207 44208 {}
44218 44219 {}
44226 44227 {}
44167 44168 {}
44167 44196 {}
44167 44199 {}
44167 44239 {}
44196 44197 {}
44199 44200 {}
44239 44240 {}
44169 44170 {}
44169 45398 {}
44169 45455 {}
44169 45474 {}
44169 45524 {}
44169 45605 {}
44169 45645 {}
44169 45684 {}
44169 45788 {}
44169 45872 {}
44169 46114 {}
44169 46312 {}
44169 46644 {}
44169 46768 {}
44169 47072 {}
44169 47204 {}
44169 47428 {}
44169 47607 {}
44169 47940 {}
44169 48163 {}
44169 48255 {}
44169 48496 {}
44169 48701 {}
44169 48766 {}
44169 49042 {}
44169 49207 {}
44169 49256 {}
44169 49435 {}
44169 49698 {}
44169 49853 {}
44169 50026 {}
44169 50204 {}
44178 44179 {}
44172 44175 {}
44172 44199 {}
44172 44204 {}
44172 44236 {}
44175 44176 {}
44204 44205 {}
44236 44237 {}
44174 44175 {}
44174 44187 {}
44174 44226 {}
44174 44244 {}
44187 44188 {}
44244 44245 {}
44176 44177 {}
44176 45402 {}
44176 45445 {}
44176 45496 {}
44176 45545 {}
44176 45574 {}
44176 45630 {}
44176 45674 {}
44176 45761 {}
44176 45893 {}
44176 46091 {}
44176 46321 {}
44176 46645 {}
44176 46782 {}
44176 47094 {}
44176 47205 {}
44176 47406 {}
44176 47606 {}
44176 47935 {}
44176 48173 {}
44176 48287 {}
44176 48498 {}
44176 48691 {}
44176 48752 {}
44176 49010 {}
44176 49185 {}
44176 49282 {}
44176 49439 {}
44176 49711 {}
44176 49874 {}
44176 50059 {}
44176 50236 {}
44179 44192 {}
44192 44193 {}
44181 44184 {}
44181 44204 {}
44181 44207 {}
44181 44221 {}
44184 44185 {}
44221 44222 {}
44183 44184 {}
44183 44187 {}
44183 44229 {}
44183 44239 {}
44229 44230 {}
44185 44186 {}
44185 45376 {}
44185 45419 {}
44185 45492 {}
44185 45546 {}
44185 45584 {}
44185 45619 {}
44185 45679 {}
44185 45771 {}
44185 45894 {}
44185 46092 {}
44185 46329 {}
44185 46649 {}
44185 46779 {}
44185 47073 {}
44185 47196 {}
44185 47433 {}
44185 47616 {}
44185 47927 {}
44185 48144 {}
44185 48254 {}
44185 48511 {}
44185 48697 {}
44185 48784 {}
44185 49015 {}
44185 49193 {}
44185 49255 {}
44185 49431 {}
44185 49712 {}
44185 49875 {}
44185 50023 {}
44185 50231 {}
44190 44191 {}
44188 44189 {}
44188 45403 {}
44188 45420 {}
44188 45502 {}
44188 45534 {}
44188 45569 {}
44188 45623 {}
44188 45669 {}
44188 45756 {}
44188 45882 {}
44188 46101 {}
44188 46343 {}
44188 46647 {}
44188 46760 {}
44188 47077 {}
44188 47187 {}
44188 47410 {}
44188 47643 {}
44188 47926 {}
44188 48167 {}
44188 48250 {}
44188 48508 {}
44188 48674 {}
44188 48774 {}
44188 49005 {}
44188 49176 {}
44188 49278 {}
44188 49436 {}
44188 49702 {}
44188 49859 {}
44188 50049 {}
44188 50226 {}
44191 44192 {}
44193 44214 {}
44214 44215 {}
44195 44196 {}
44195 44221 {}
44195 44244 {}
44195 44247 {}
44247 44248 {}
44197 44198 {}
44197 45388 {}
44197 45456 {}
44197 45501 {}
44197 45556 {}
44197 45602 {}
44197 45624 {}
44197 45702 {}
44197 45793 {}
44197 45904 {}
44197 46124 {}
44197 46318 {}
44197 46642 {}
44197 46783 {}
44197 47082 {}
44197 47186 {}
44197 47419 {}
44197 47610 {}
44197 47931 {}
44197 48141 {}
44197 48260 {}
44197 48505 {}
44197 48669 {}
44197 48787 {}
44197 49038 {}
44197 49186 {}
44197 49265 {}
44197 49438 {}
44197 49676 {}
44197 49870 {}
44197 50048 {}
44197 50210 {}
44202 44203 {}
44200 44201 {}
44200 45370 {}
44200 45433 {}
44200 45473 {}
44200 45523 {}
44200 45570 {}
44200 45646 {}
44200 45670 {}
44200 45757 {}
44200 45871 {}
44200 46113 {}
44200 46334 {}
44200 46638 {}
44200 46772 {}
44200 47083 {}
44200 47208 {}
44200 47401 {}
44200 47638 {}
44200 47923 {}
44200 48162 {}
44200 48264 {}
44200 48506 {}
44200 48700 {}
44200 48765 {}
44200 49006 {}
44200 49171 {}
44200 49266 {}
44200 49427 {}
44200 49697 {}
44200 49852 {}
44200 50058 {}
44200 50225 {}
44203 44212 {}
44212 44213 {}
44205 44206 {}
44205 45392 {}
44205 45429 {}
44205 45505 {}
44205 45520 {}
44205 45592 {}
44205 45642 {}
44205 45680 {}
44205 45782 {}
44205 45867 {}
44205 46087 {}
44205 46344 {}
44205 46639 {}
44205 46746 {}
44205 47095 {}
44205 47215 {}
44205 47396 {}
44205 47632 {}
44205 47938 {}
44205 48145 {}
44205 48273 {}
44205 48509 {}
44205 48686 {}
44205 48751 {}
44205 49016 {}
44205 49197 {}
44205 49291 {}
44205 49434 {}
44205 49675 {}
44205 49885 {}
44205 50022 {}
44205 50203 {}
44210 44211 {}
44208 44209 {}
44208 45399 {}
44208 45441 {}
44208 45495 {}
44208 45530 {}
44208 45595 {}
44208 45633 {}
44208 45692 {}
44208 45760 {}
44208 45878 {}
44208 46098 {}
44208 46308 {}
44208 46650 {}
44208 46757 {}
44208 47105 {}
44208 47197 {}
44208 47423 {}
44208 47639 {}
44208 47930 {}
44208 48154 {}
44208 48276 {}
44208 48504 {}
44208 48690 {}
44208 48762 {}
44208 49028 {}
44208 49204 {}
44208 49270 {}
44208 49425 {}
44208 49686 {}
44208 49863 {}
44208 50033 {}
44208 50221 {}
44211 44212 {}
44213 44214 {}
44215 44256 {}
44256 44257 {}
44256 45362 {}
44216 44217 {}
44217 44218 {}
44217 44229 {}
44217 44236 {}
44217 44247 {}
44219 44220 {}
44219 45389 {}
44219 45430 {}
44219 45506 {}
44219 45552 {}
44219 45580 {}
44219 45629 {}
44219 45706 {}
44219 45767 {}
44219 45899 {}
44219 46119 {}
44219 46322 {}
44219 46637 {}
44219 46778 {}
44219 47098 {}
44219 47182 {}
44219 47422 {}
44219 47628 {}
44219 47937 {}
44219 48176 {}
44219 48251 {}
44219 48512 {}
44219 48668 {}
44219 48783 {}
44219 49020 {}
44219 49175 {}
44219 49259 {}
44219 49433 {}
44219 49707 {}
44219 49848 {}
44219 50054 {}
44219 50209 {}
44224 44225 {}
44222 44223 {}
44222 45377 {}
44222 45452 {}
44222 45470 {}
44222 45519 {}
44222 45601 {}
44222 45641 {}
44222 45701 {}
44222 45779 {}
44222 45881 {}
44222 46088 {}
44222 46317 {}
44222 46646 {}
44222 46747 {}
44222 47076 {}
44222 47218 {}
44222 47407 {}
44222 47617 {}
44222 47939 {}
44222 48166 {}
44222 48261 {}
44222 48510 {}
44222 48665 {}
44222 48773 {}
44222 49037 {}
44222 49194 {}
44222 49260 {}
44222 49428 {}
44222 49701 {}
44222 49881 {}
44222 50027 {}
44222 50200 {}
44225 44234 {}
44234 44235 {}
44227 44228 {}
44227 45380 {}
44227 45446 {}
44227 45491 {}
44227 45529 {}
44227 45606 {}
44227 45652 {}
44227 45696 {}
44227 45789 {}
44227 45877 {}
44227 46097 {}
44227 46330 {}
44227 46635 {}
44227 46756 {}
44227 47086 {}
44227 47183 {}
44227 47400 {}
44227 47620 {}
44227 47932 {}
44227 48140 {}
44227 48277 {}
44227 48497 {}
44227 48687 {}
44227 48761 {}
44227 49027 {}
44227 49203 {}
44227 49269 {}
44227 49440 {}
44227 49685 {}
44227 49849 {}
44227 50032 {}
44227 50222 {}
44232 44233 {}
44230 44231 {}
44230 45381 {}
44230 45434 {}
44230 45479 {}
44230 45533 {}
44230 45579 {}
44230 45634 {}
44230 45683 {}
44230 45766 {}
44230 45900 {}
44230 46120 {}
44230 46311 {}
44230 46641 {}
44230 46761 {}
44230 47087 {}
44230 47219 {}
44230 47411 {}
44230 47621 {}
44230 47924 {}
44230 48177 {}
44230 48282 {}
44230 48499 {}
44230 48675 {}
44230 48778 {}
44230 49019 {}
44230 49198 {}
44230 49287 {}
44230 49423 {}
44230 49680 {}
44230 49880 {}
44230 50045 {}
44230 50232 {}
44233 44234 {}
44235 44254 {}
44254 44255 {}
44237 44238 {}
44237 45366 {}
44237 45442 {}
44237 45483 {}
44237 45541 {}
44237 45596 {}
44237 45620 {}
44237 45691 {}
44237 45783 {}
44237 45889 {}
44237 46109 {}
44237 46340 {}
44237 46636 {}
44237 46750 {}
44237 47104 {}
44237 47214 {}
44237 47429 {}
44237 47642 {}
44237 47928 {}
44237 48172 {}
44237 48283 {}
44237 48513 {}
44237 48696 {}
44237 48755 {}
44237 49032 {}
44237 49181 {}
44237 49288 {}
44237 49426 {}
44237 49708 {}
44237 49884 {}
44237 50055 {}
44237 50235 {}
44242 44243 {}
44240 44241 {}
44240 45367 {}
44240 45423 {}
44240 45469 {}
44240 45555 {}
44240 45583 {}
44240 45655 {}
44240 45705 {}
44240 45770 {}
44240 45903 {}
44240 46123 {}
44240 46333 {}
44240 46643 {}
44240 46773 {}
44240 47108 {}
44240 47192 {}
44240 47418 {}
44240 47611 {}
44240 47929 {}
44240 48155 {}
44240 48272 {}
44240 48507 {}
44240 48678 {}
44240 48777 {}
44240 49041 {}
44240 49172 {}
44240 49277 {}
44240 49437 {}
44240 49689 {}
44240 49858 {}
44240 50036 {}
44240 50213 {}
44243 44252 {}
44252 44253 {}
44245 44246 {}
44245 45393 {}
44245 45451 {}
44245 45480 {}
44245 45542 {}
44245 45573 {}
44245 45651 {}
44245 45673 {}
44245 45778 {}
44245 45868 {}
44245 46110 {}
44245 46339 {}
44245 46640 {}
44245 46769 {}
44245 47099 {}
44245 47209 {}
44245 47397 {}
44245 47633 {}
44245 47925 {}
44245 48150 {}
44245 48286 {}
44245 48500 {}
44245 48664 {}
44245 48788 {}
44245 49009 {}
44245 49208 {}
44245 49281 {}
44245 49424 {}
44245 49690 {}
44245 49871 {}
44245 50037 {}
44245 50199 {}
44250 44251 {}
44248 44249 {}
44248 45371 {}
44248 45424 {}
44248 45484 {}
44248 45551 {}
44248 45591 {}
44248 45656 {}
44248 45695 {}
44248 45792 {}
44248 45890 {}
44248 46102 {}
44248 46307 {}
44248 46648 {}
44248 46751 {}
44248 47109 {}
44248 47193 {}
44248 47432 {}
44248 47629 {}
44248 47936 {}
44248 48151 {}
44248 48265 {}
44248 48501 {}
44248 48679 {}
44248 48756 {}
44248 49031 {}
44248 49182 {}
44248 49292 {}
44248 49432 {}
44248 49679 {}
44248 49862 {}
44248 50044 {}
44248 50214 {}
44251 44252 {}
44253 44254 {}
44255 44256 {}
44257 45363 {}
45362 45364 {}
45362 45754 {}
45363 45364 {}
44260 45207 {}
44260 46145 {}
44260 46147 {}
45313 45314 {}
46144 46148 {}
46146 46149 {}
45207 45314 {}
45207 45317 {}
46145 46148 {}
46147 46149 {}
44263 44264 {}
44263 44278 {}
44264 44279 {}
44278 44280 {}
44278 45322 {}
44279 44280 {}
44267 44273 {}
44267 44275 {}
44267 45267 {}
44272 44276 {}
44274 44277 {}
45295 45296 {}
44273 44276 {}
44275 44277 {}
45267 45296 {}
45267 45299 {}
44270 44271 {}
44270 44272 {}
44270 44275 {}
44271 44273 {}
44271 44274 {}
44276 44278 {}
44276 48021 {}
44276 48024 {}
44277 44279 {}
44277 48022 {}
44277 48023 {}
48021 48025 {}
48024 48026 {}
48022 48025 {}
48023 48026 {}
44280 44281 {}
44280 45198 {}
45322 45323 {}
45322 45342 {}
45322 45345 {}
45322 45826 {}
44281 45197 {}
45198 45199 {}
45197 45199 {}
45197 45322 {}
44284 44285 {}
44284 44300 {}
44285 44299 {}
44300 45193 {}
44300 45196 {}
44300 45211 {}
44299 45194 {}
44299 45195 {}
44299 45211 {}
44288 44294 {}
44288 44296 {}
44288 45277 {}
44293 44297 {}
44295 44298 {}
45289 45290 {}
44294 44297 {}
44296 44298 {}
45277 45290 {}
45277 45293 {}
44291 44292 {}
44291 44293 {}
44291 44296 {}
44292 44294 {}
44292 44295 {}
44297 44300 {}
44297 47702 {}
44298 44299 {}
44298 47703 {}
47702 47704 {}
47703 47704 {}
45194 45196 {}
45195 45198 {}
45211 45212 {}
45211 45213 {}
45211 45215 {}
45193 45195 {}
45196 45197 {}
44303 44304 {}
44303 44318 {}
44304 44319 {}
44318 44320 {}
44318 45191 {}
44319 44320 {}
44307 44313 {}
44307 44315 {}
44307 45287 {}
44312 44316 {}
44314 44317 {}
45715 45716 {}
44313 44316 {}
44315 44317 {}
45287 45288 {}
45287 45665 {}
45287 45716 {}
44310 44311 {}
44310 44312 {}
44310 44315 {}
44311 44313 {}
44311 44314 {}
44316 44318 {}
44316 47490 {}
44317 44319 {}
44317 47491 {}
47490 47492 {}
47491 47492 {}
44320 44321 {}
44320 45232 {}
45191 45192 {}
45191 45194 {}
45191 45214 {}
45191 45215 {}
44321 45190 {}
45232 45233 {}
45190 45191 {}
45190 45233 {}
44324 44325 {}
44324 44842 {}
44325 44843 {}
44842 44844 {}
44842 45188 {}
44843 44844 {}
44328 44329 {}
44328 44837 {}
44328 44839 {}
44329 44836 {}
44329 44838 {}
44837 44840 {}
44839 44841 {}
44836 44840 {}
44838 44841 {}
44332 44333 {}
44333 44338 {}
44338 44339 {}
44336 44337 {}
44337 44338 {}
44339 44350 {}
44350 44351 {}
44342 44343 {}
44343 44348 {}
44348 44349 {}
44346 44347 {}
44347 44348 {}
44349 44350 {}
44351 44374 {}
44374 44375 {}
44374 44454 {}
44354 44355 {}
44355 44360 {}
44360 44361 {}
44358 44359 {}
44359 44360 {}
44361 44372 {}
44372 44373 {}
44364 44365 {}
44365 44370 {}
44370 44371 {}
44368 44369 {}
44369 44370 {}
44371 44372 {}
44373 44374 {}
44375 44752 {}
44454 44753 {}
44454 44756 {}
44752 44753 {}
44377 44382 {}
44383 44384 {}
44382 44384 {}
44382 44758 {}
44380 44381 {}
44380 44382 {}
44380 47995 {}
44380 47998 {}
44381 44383 {}
44381 47996 {}
44381 47997 {}
47995 47999 {}
47998 48000 {}
47996 47999 {}
47997 48000 {}
44384 44385 {}
44384 44451 {}
44758 44759 {}
44758 44825 {}
44758 44827 {}
44385 44450 {}
44451 44452 {}
44450 44452 {}
44450 44758 {}
44387 44393 {}
44392 44447 {}
44392 44448 {}
44392 44501 {}
44393 44446 {}
44393 44449 {}
44393 44501 {}
44390 44391 {}
44390 44393 {}
44390 47678 {}
44390 47681 {}
44391 44392 {}
44391 47679 {}
44391 47680 {}
47678 47682 {}
47681 47683 {}
47679 47682 {}
47680 47683 {}
44447 44449 {}
44448 44451 {}
44501 44502 {}
44501 44503 {}
44501 44505 {}
44446 44448 {}
44449 44450 {}
44395 44400 {}
44401 44402 {}
44400 44402 {}
44400 44444 {}
44398 44399 {}
44398 44400 {}
44398 47468 {}
44398 47471 {}
44399 44401 {}
44399 47469 {}
44399 47470 {}
47468 47472 {}
47471 47473 {}
47469 47472 {}
47470 47473 {}
44402 44403 {}
44402 44559 {}
44444 44445 {}
44444 44447 {}
44444 44504 {}
44444 44505 {}
44403 44443 {}
44559 44560 {}
44443 44444 {}
44443 44560 {}
44405 44411 {}
44410 44440 {}
44410 44441 {}
44410 44609 {}
44411 44439 {}
44411 44442 {}
44411 44609 {}
44408 44409 {}
44408 44411 {}
44408 47257 {}
44408 47260 {}
44409 44410 {}
44409 47258 {}
44409 47259 {}
47257 47261 {}
47260 47262 {}
47258 47261 {}
47259 47262 {}
44440 44442 {}
44441 44559 {}
44609 44610 {}
44609 44611 {}
44609 44613 {}
44439 44441 {}
44442 44443 {}
44413 44418 {}
44419 44420 {}
44418 44420 {}
44418 44437 {}
44416 44417 {}
44416 44418 {}
44416 47147 {}
44416 47150 {}
44417 44419 {}
44417 47148 {}
44417 47149 {}
47147 47151 {}
47150 47152 {}
47148 47151 {}
47149 47152 {}
44420 44421 {}
44420 44667 {}
44437 44438 {}
44437 44440 {}
44437 44612 {}
44437 44613 {}
44421 44436 {}
44667 44668 {}
44436 44437 {}
44436 44668 {}
44423 44429 {}
44428 44433 {}
44428 44434 {}
44428 44720 {}
44429 44432 {}
44429 44435 {}
44429 44720 {}
44426 44427 {}
44426 44429 {}
44426 46824 {}
44426 46826 {}
44427 44428 {}
44427 46823 {}
44427 46825 {}
46824 46827 {}
46826 46828 {}
46823 46827 {}
46825 46828 {}
44433 44435 {}
44434 44667 {}
44720 44721 {}
44720 44722 {}
44720 44724 {}
44432 44434 {}
44435 44436 {}
44431 44432 {}
44431 44723 {}
44431 44724 {}
44722 44726 {}
44725 44727 {}
44723 44726 {}
44724 44727 {}
44668 44669 {}
44668 44671 {}
44438 44439 {}
44438 44611 {}
44438 44614 {}
44612 44615 {}
44613 44616 {}
44611 44615 {}
44614 44616 {}
44560 44561 {}
44560 44743 {}
44445 44446 {}
44445 44503 {}
44445 44506 {}
44504 44507 {}
44505 44508 {}
44503 44507 {}
44506 44508 {}
44452 44453 {}
44452 44752 {}
44453 44454 {}
44753 44754 {}
44753 44850 {}
44756 44757 {}
44756 44830 {}
44756 44832 {}
44457 44458 {}
44458 44463 {}
44463 44464 {}
44461 44462 {}
44462 44463 {}
44464 44475 {}
44475 44476 {}
44467 44468 {}
44468 44473 {}
44473 44474 {}
44471 44472 {}
44472 44473 {}
44474 44475 {}
44476 44499 {}
44499 44500 {}
44499 44509 {}
44479 44480 {}
44480 44485 {}
44485 44486 {}
44483 44484 {}
44484 44485 {}
44486 44497 {}
44497 44498 {}
44489 44490 {}
44490 44495 {}
44495 44496 {}
44493 44494 {}
44494 44495 {}
44496 44497 {}
44498 44499 {}
44500 44510 {}
44509 44511 {}
44509 44750 {}
44510 44511 {}
44502 44504 {}
44502 44506 {}
44507 44510 {}
44508 44509 {}
44511 44512 {}
44511 44871 {}
44750 44751 {}
44750 44755 {}
44512 44749 {}
44871 44872 {}
44749 44750 {}
44749 44872 {}
44515 44516 {}
44516 44521 {}
44521 44522 {}
44519 44520 {}
44520 44521 {}
44522 44533 {}
44533 44534 {}
44525 44526 {}
44526 44531 {}
44531 44532 {}
44529 44530 {}
44530 44531 {}
44532 44533 {}
44534 44557 {}
44557 44558 {}
44557 44562 {}
44537 44538 {}
44538 44543 {}
44543 44544 {}
44541 44542 {}
44542 44543 {}
44544 44555 {}
44555 44556 {}
44547 44548 {}
44548 44553 {}
44553 44554 {}
44551 44552 {}
44552 44553 {}
44554 44555 {}
44556 44557 {}
44558 44743 {}
44562 44744 {}
44562 44747 {}
44743 44744 {}
44561 44562 {}
44744 44745 {}
44744 44892 {}
44747 44748 {}
44747 44749 {}
44565 44566 {}
44566 44571 {}
44571 44572 {}
44569 44570 {}
44570 44571 {}
44572 44583 {}
44583 44584 {}
44575 44576 {}
44576 44581 {}
44581 44582 {}
44579 44580 {}
44580 44581 {}
44582 44583 {}
44584 44607 {}
44607 44608 {}
44607 44617 {}
44587 44588 {}
44588 44593 {}
44593 44594 {}
44591 44592 {}
44592 44593 {}
44594 44605 {}
44605 44606 {}
44597 44598 {}
44598 44603 {}
44603 44604 {}
44601 44602 {}
44602 44603 {}
44604 44605 {}
44606 44607 {}
44608 44618 {}
44617 44619 {}
44617 44741 {}
44618 44619 {}
44610 44612 {}
44610 44614 {}
44615 44618 {}
44616 44617 {}
44619 44620 {}
44619 44913 {}
44741 44742 {}
44741 44746 {}
44620 44740 {}
44913 44914 {}
44740 44741 {}
44740 44914 {}
44623 44624 {}
44624 44629 {}
44629 44630 {}
44627 44628 {}
44628 44629 {}
44630 44641 {}
44641 44642 {}
44633 44634 {}
44634 44639 {}
44639 44640 {}
44637 44638 {}
44638 44639 {}
44640 44641 {}
44642 44665 {}
44665 44666 {}
44665 44670 {}
44645 44646 {}
44646 44651 {}
44651 44652 {}
44649 44650 {}
44650 44651 {}
44652 44663 {}
44663 44664 {}
44655 44656 {}
44656 44661 {}
44661 44662 {}
44659 44660 {}
44660 44661 {}
44662 44663 {}
44664 44665 {}
44666 44671 {}
44670 44672 {}
44670 44738 {}
44671 44672 {}
44669 44670 {}
44672 44673 {}
44672 44934 {}
44738 44739 {}
44738 44740 {}
44673 44737 {}
44934 44935 {}
44737 44738 {}
44737 44935 {}
44676 44677 {}
44677 44682 {}
44682 44683 {}
44680 44681 {}
44681 44682 {}
44683 44694 {}
44694 44695 {}
44686 44687 {}
44687 44692 {}
44692 44693 {}
44690 44691 {}
44691 44692 {}
44693 44694 {}
44695 44718 {}
44718 44719 {}
44718 44728 {}
44698 44699 {}
44699 44704 {}
44704 44705 {}
44702 44703 {}
44703 44704 {}
44705 44716 {}
44716 44717 {}
44708 44709 {}
44709 44714 {}
44714 44715 {}
44712 44713 {}
44713 44714 {}
44715 44716 {}
44717 44718 {}
44719 44731 {}
44728 44732 {}
44728 44735 {}
44731 44732 {}
44721 44723 {}
44721 44725 {}
44726 44728 {}
44727 44731 {}
44732 44733 {}
44732 44955 {}
44735 44736 {}
44735 44737 {}
44730 44955 {}
44734 44735 {}
44734 44956 {}
44955 44956 {}
44733 44734 {}
44956 44957 {}
44956 44962 {}
44956 44964 {}
44956 49229 {}
44736 44934 {}
44935 44936 {}
44935 44941 {}
44935 44943 {}
44935 49311 {}
44739 44913 {}
44914 44915 {}
44914 44920 {}
44914 44922 {}
44914 49481 {}
44742 44892 {}
44746 44747 {}
44746 44893 {}
44892 44893 {}
44745 44746 {}
44893 44894 {}
44893 44899 {}
44893 44901 {}
44893 49731 {}
44748 44871 {}
44872 44873 {}
44872 44878 {}
44872 44880 {}
44872 49911 {}
44751 44850 {}
44755 44756 {}
44755 44851 {}
44850 44851 {}
44754 44755 {}
44851 44852 {}
44851 44857 {}
44851 44859 {}
44851 50078 {}
44757 44831 {}
44757 44833 {}
44830 44834 {}
44832 44835 {}
44831 44834 {}
44833 44835 {}
44759 44824 {}
44759 44826 {}
44825 44828 {}
44827 44829 {}
44824 44828 {}
44826 44829 {}
44762 44763 {}
44763 44768 {}
44768 44769 {}
44766 44767 {}
44767 44768 {}
44769 44780 {}
44780 44781 {}
44772 44773 {}
44773 44778 {}
44778 44779 {}
44776 44777 {}
44777 44778 {}
44779 44780 {}
44781 44804 {}
44804 44805 {}
44804 44818 {}
44804 44820 {}
44784 44785 {}
44785 44790 {}
44790 44791 {}
44788 44789 {}
44789 44790 {}
44791 44802 {}
44802 44803 {}
44794 44795 {}
44795 44800 {}
44800 44801 {}
44798 44799 {}
44799 44800 {}
44801 44802 {}
44803 44804 {}
44805 44819 {}
44805 44821 {}
44818 44822 {}
44820 44823 {}
44819 44822 {}
44821 44823 {}
44807 44813 {}
44807 44814 {}
44812 44816 {}
44815 44817 {}
44813 44816 {}
44814 44817 {}
44810 44811 {}
44810 44813 {}
44810 44815 {}
44810 48217 {}
44810 48219 {}
44811 44812 {}
44811 44814 {}
44811 48216 {}
44811 48218 {}
48217 48220 {}
48219 48221 {}
48216 48220 {}
48218 48221 {}
44816 44819 {}
44816 44820 {}
44817 44818 {}
44817 44821 {}
44822 44825 {}
44822 44826 {}
44823 44824 {}
44823 44827 {}
44828 44831 {}
44828 44832 {}
44829 44830 {}
44829 44833 {}
44834 44836 {}
44834 44839 {}
44834 50259 {}
44834 50261 {}
44835 44837 {}
44835 44838 {}
44835 50258 {}
44835 50260 {}
50259 50262 {}
50261 50263 {}
50258 50262 {}
50260 50263 {}
44840 44842 {}
44840 47279 {}
44841 44843 {}
44841 47280 {}
47279 47281 {}
47280 47281 {}
44844 44845 {}
44844 45245 {}
45188 45189 {}
45188 45190 {}
44845 45187 {}
45245 45246 {}
45187 45188 {}
45187 45246 {}
44848 44849 {}
44848 44863 {}
44849 44864 {}
44863 44865 {}
44863 45185 {}
44864 44865 {}
44852 44858 {}
44852 44860 {}
44852 50077 {}
44857 44861 {}
44859 44862 {}
50078 50079 {}
44858 44861 {}
44860 44862 {}
50077 50079 {}
50077 50197 {}
44855 44856 {}
44855 44857 {}
44855 44860 {}
44856 44858 {}
44856 44859 {}
44861 44863 {}
44861 47173 {}
44862 44864 {}
44862 47174 {}
47173 47175 {}
47174 47175 {}
44865 44866 {}
44865 45258 {}
45185 45186 {}
45185 45187 {}
44866 45184 {}
45258 45259 {}
45184 45185 {}
45184 45259 {}
44869 44870 {}
44869 44884 {}
44870 44885 {}
44884 44886 {}
44884 45182 {}
44885 44886 {}
44873 44879 {}
44873 44881 {}
44873 49910 {}
44878 44882 {}
44880 44883 {}
49911 49912 {}
49911 50082 {}
49911 50083 {}
44879 44882 {}
44881 44883 {}
49910 49912 {}
49910 50081 {}
49910 50084 {}
44876 44877 {}
44876 44878 {}
44876 44881 {}
44877 44879 {}
44877 44880 {}
44882 44884 {}
44882 46847 {}
44883 44885 {}
44883 46848 {}
46847 46849 {}
46848 46849 {}
44886 44887 {}
44886 45268 {}
45182 45183 {}
45182 45184 {}
44887 45181 {}
45268 45269 {}
45181 45182 {}
45181 45269 {}
44890 44891 {}
44890 44905 {}
44891 44906 {}
44905 44907 {}
44905 45179 {}
44906 44907 {}
44894 44900 {}
44894 44902 {}
44894 49730 {}
44899 44903 {}
44901 44904 {}
49731 49732 {}
44900 44903 {}
44902 44904 {}
49730 49732 {}
49730 49894 {}
44897 44898 {}
44897 44899 {}
44897 44902 {}
44898 44900 {}
44898 44901 {}
44903 44905 {}
44903 46734 {}
44903 46736 {}
44904 44906 {}
44904 46735 {}
44904 46737 {}
46734 46738 {}
46736 46739 {}
46735 46738 {}
46737 46739 {}
44907 44908 {}
44907 45278 {}
45179 45180 {}
45179 45181 {}
44908 45178 {}
45278 45279 {}
45178 45179 {}
45178 45279 {}
44911 44912 {}
44911 44926 {}
44912 44927 {}
44926 44928 {}
44926 45176 {}
44927 44928 {}
44915 44921 {}
44915 44923 {}
44915 49480 {}
44920 44924 {}
44922 44925 {}
49481 49482 {}
49481 49735 {}
49481 49736 {}
44921 44924 {}
44923 44925 {}
49480 49482 {}
49480 49734 {}
49480 49737 {}
44918 44919 {}
44918 44920 {}
44918 44923 {}
44919 44921 {}
44919 44922 {}
44924 44926 {}
44924 46406 {}
44925 44927 {}
44925 46407 {}
46406 46408 {}
46407 46408 {}
44928 44929 {}
44928 50245 {}
45176 45177 {}
45176 45178 {}
44929 45175 {}
50245 50246 {}
45175 45176 {}
45175 50246 {}
44932 44933 {}
44932 44947 {}
44933 44948 {}
44947 44949 {}
44947 45173 {}
44948 44949 {}
44936 44942 {}
44936 44944 {}
44936 49310 {}
44941 44945 {}
44943 44946 {}
49311 49312 {}
44942 44945 {}
44944 44946 {}
49310 49312 {}
49310 49469 {}
44939 44940 {}
44939 44941 {}
44939 44944 {}
44940 44942 {}
44940 44943 {}
44945 44947 {}
44945 46188 {}
44946 44948 {}
44946 46189 {}
46188 46190 {}
46189 46190 {}
44949 44950 {}
44949 50068 {}
45173 45174 {}
45173 45175 {}
44950 45172 {}
50068 50069 {}
45172 45173 {}
45172 50069 {}
44953 44954 {}
44953 44968 {}
44954 44969 {}
44968 45169 {}
44968 45170 {}
44968 49896 {}
44969 45168 {}
44969 45171 {}
44969 49896 {}
44957 44963 {}
44957 44965 {}
44957 49228 {}
44962 44966 {}
44964 44967 {}
49229 49230 {}
49229 49315 {}
49229 49316 {}
44963 44966 {}
44965 44967 {}
49228 49230 {}
49228 49314 {}
49228 49317 {}
44960 44961 {}
44960 44962 {}
44960 44965 {}
44961 44963 {}
44961 44964 {}
44966 44968 {}
44966 45968 {}
44967 44969 {}
44967 45969 {}
45968 45970 {}
45969 45970 {}
45169 45171 {}
45170 45172 {}
49896 49897 {}
49896 49898 {}
49896 49901 {}
45168 45170 {}
45171 50068 {}
44972 44973 {}
44972 44974 {}
44973 45162 {}
45163 45164 {}
45163 49721 {}
45166 45167 {}
45166 45168 {}
45166 49899 {}
45166 49901 {}
44977 44978 {}
44977 44992 {}
44978 44993 {}
44992 44994 {}
44992 45160 {}
44993 44994 {}
44981 44987 {}
44981 44989 {}
44981 48808 {}
44986 44990 {}
44988 44991 {}
48809 48810 {}
48809 49065 {}
48809 49066 {}
44987 44990 {}
44989 44991 {}
48808 48810 {}
48808 49064 {}
48808 49067 {}
44984 44985 {}
44984 44986 {}
44984 44989 {}
44985 44987 {}
44985 44988 {}
44990 44992 {}
44990 50437 {}
44991 44993 {}
44991 50438 {}
50437 50439 {}
50438 50439 {}
44994 44995 {}
44994 49471 {}
45160 45161 {}
45160 45165 {}
44995 45159 {}
49471 49472 {}
45159 45160 {}
45159 49472 {}
44998 44999 {}
44998 45013 {}
44999 45014 {}
45013 45015 {}
45013 45157 {}
45014 45015 {}
45002 45008 {}
45002 45010 {}
45002 48719 {}
45007 45011 {}
45009 45012 {}
48720 48721 {}
45008 45011 {}
45010 45012 {}
48719 48721 {}
48719 48797 {}
45005 45006 {}
45005 45007 {}
45005 45010 {}
45006 45008 {}
45006 45009 {}
45011 45013 {}
45011 50409 {}
45012 45014 {}
45012 50410 {}
50409 50411 {}
50410 50411 {}
45015 45016 {}
45015 49301 {}
45157 45158 {}
45157 45159 {}
45016 45156 {}
49301 49302 {}
45156 45157 {}
45156 49302 {}
45019 45020 {}
45019 45034 {}
45020 45035 {}
45034 45036 {}
45034 45154 {}
45035 45036 {}
45023 45024 {}
45023 45028 {}
45023 45031 {}
45024 45029 {}
45024 45030 {}
45028 45032 {}
45031 45033 {}
45029 45032 {}
45030 45033 {}
45027 45029 {}
45027 45031 {}
45027 48553 {}
48554 48555 {}
48554 48724 {}
48554 48725 {}
48553 48555 {}
48553 48723 {}
48553 48726 {}
45032 45034 {}
45032 50399 {}
45033 45035 {}
45033 50400 {}
50399 50401 {}
50400 50401 {}
45036 45037 {}
45036 49219 {}
45154 45155 {}
45154 45156 {}
45037 45153 {}
49219 49220 {}
45153 45154 {}
45153 49220 {}
45040 45041 {}
45040 45055 {}
45041 45147 {}
45055 45148 {}
45055 45151 {}
45147 45148 {}
45044 45050 {}
45044 45052 {}
45044 48307 {}
45049 45053 {}
45051 45054 {}
48308 48309 {}
45050 45053 {}
45052 45054 {}
48307 48309 {}
48307 48542 {}
45047 45048 {}
45047 45049 {}
45047 45052 {}
45048 45050 {}
45048 45051 {}
45053 45055 {}
45053 50371 {}
45054 45147 {}
45054 50372 {}
50371 50373 {}
50372 50373 {}
45148 45149 {}
45148 49051 {}
45151 45152 {}
45151 45153 {}
45058 45059 {}
45058 45073 {}
45059 45074 {}
45073 45075 {}
45073 45145 {}
45074 45075 {}
45062 45068 {}
45062 45070 {}
45062 48222 {}
45067 45071 {}
45069 45072 {}
48223 48224 {}
45068 45071 {}
45070 45072 {}
48222 48224 {}
48222 48296 {}
45065 45066 {}
45065 45067 {}
45065 45070 {}
45066 45068 {}
45066 45069 {}
45071 45073 {}
45071 50351 {}
45072 45074 {}
45072 50352 {}
50351 50353 {}
50352 50353 {}
45075 45076 {}
45075 48799 {}
45145 45146 {}
45145 45150 {}
45076 45144 {}
48799 48800 {}
45144 45145 {}
45144 48800 {}
45079 45080 {}
45079 45094 {}
45080 45138 {}
45094 45139 {}
45094 45142 {}
45138 45139 {}
45083 45089 {}
45083 45091 {}
45083 48001 {}
45088 45092 {}
45090 45093 {}
48002 48003 {}
45089 45092 {}
45091 45093 {}
48001 48003 {}
48001 48186 {}
45086 45087 {}
45086 45088 {}
45086 45091 {}
45087 45089 {}
45087 45090 {}
45092 45094 {}
45092 50341 {}
45093 45138 {}
45093 50342 {}
50341 50343 {}
50342 50343 {}
45139 45140 {}
45139 48710 {}
45142 45143 {}
45142 45144 {}
45097 45098 {}
45097 45112 {}
45098 45132 {}
45112 45133 {}
45112 45136 {}
45132 45133 {}
45101 45107 {}
45101 45109 {}
45101 47684 {}
45106 45110 {}
45108 45111 {}
47685 47686 {}
47685 48005 {}
47685 48008 {}
45107 45110 {}
45109 45111 {}
47684 47686 {}
47684 48006 {}
47684 48007 {}
45104 45105 {}
45104 45106 {}
45104 45109 {}
45105 45107 {}
45105 45108 {}
45110 45112 {}
45110 50320 {}
45110 50322 {}
45111 45132 {}
45111 50321 {}
45111 50323 {}
50320 50324 {}
50322 50325 {}
50321 50324 {}
50323 50325 {}
45133 45134 {}
45133 48544 {}
45136 45137 {}
45136 45141 {}
45115 45116 {}
45115 45130 {}
45116 48298 {}
45130 45131 {}
45130 48299 {}
45130 48544 {}
48298 48299 {}
45119 45125 {}
45119 45127 {}
45119 47474 {}
45124 45128 {}
45126 45129 {}
47475 47476 {}
45125 45128 {}
45127 45129 {}
47474 47476 {}
47474 47652 {}
45122 45123 {}
45122 45124 {}
45122 45127 {}
45123 45125 {}
45123 45126 {}
45128 45130 {}
45128 50297 {}
45128 50299 {}
45129 48298 {}
45129 50298 {}
45129 50300 {}
50297 50301 {}
50299 50302 {}
50298 50301 {}
50300 50302 {}
45131 45135 {}
48299 48300 {}
48299 48301 {}
48299 48303 {}
48299 63371 {}
48544 48545 {}
45135 45136 {}
45135 48545 {}
45134 45135 {}
48545 48546 {}
48545 48547 {}
48545 48549 {}
48545 63378 {}
45137 48710 {}
45141 45142 {}
45141 48711 {}
48710 48711 {}
45140 45141 {}
48711 48712 {}
48711 48713 {}
48711 48715 {}
48711 63413 {}
45143 48799 {}
48800 48801 {}
48800 48802 {}
48800 48804 {}
48800 63426 {}
45146 49051 {}
45150 45151 {}
45150 49052 {}
49051 49052 {}
45149 45150 {}
49052 49053 {}
49052 49054 {}
49052 49056 {}
49052 63450 {}
45152 49219 {}
49220 49221 {}
49220 49222 {}
49220 49224 {}
49220 63476 {}
45155 49301 {}
49302 49303 {}
49302 49304 {}
49302 49306 {}
49302 63502 {}
45158 49471 {}
49472 49473 {}
49472 49474 {}
49472 49476 {}
49472 63539 {}
45161 49721 {}
45165 45166 {}
45165 49722 {}
49721 49722 {}
45164 45165 {}
49722 49723 {}
49722 49724 {}
49722 49726 {}
49722 63563 {}
45167 45169 {}
45167 49898 {}
45167 49900 {}
49899 49902 {}
49901 49903 {}
49898 49902 {}
49900 49903 {}
50069 50070 {}
50069 50071 {}
50069 50073 {}
50069 63601 {}
45174 50245 {}
50246 50247 {}
50246 50248 {}
50246 50250 {}
50246 63631 {}
45177 45278 {}
45279 45280 {}
45279 45281 {}
45279 45283 {}
45279 63666 {}
45180 45268 {}
45269 45270 {}
45269 45271 {}
45269 45273 {}
45269 63680 {}
45183 45258 {}
45259 45260 {}
45259 45261 {}
45259 45263 {}
45259 63704 {}
45186 45245 {}
45246 45247 {}
45246 45248 {}
45246 45250 {}
45246 63747 {}
45189 45232 {}
45233 45234 {}
45233 45235 {}
45233 45237 {}
45233 63772 {}
45192 45193 {}
45192 45213 {}
45192 45216 {}
45214 45217 {}
45215 45218 {}
45213 45217 {}
45216 45218 {}
45199 45200 {}
45199 45201 {}
45199 45203 {}
45199 63822 {}
45200 45202 {}
45200 45204 {}
45200 63821 {}
63822 63823 {}
63821 63823 {}
63821 63848 {}
45205 45207 {}
45205 65562 {}
45206 45313 {}
45206 65563 {}
65562 65564 {}
65563 65564 {}
45314 45315 {}
45314 45412 {}
45317 45318 {}
45317 45358 {}
45210 45225 {}
45210 45929 {}
45210 45931 {}
45226 45227 {}
45928 45932 {}
45930 45933 {}
45225 45227 {}
45225 45311 {}
45929 45932 {}
45931 45933 {}
45212 45214 {}
45212 45216 {}
45217 45219 {}
45217 45221 {}
45217 63785 {}
45218 45220 {}
45218 45222 {}
45218 63784 {}
63785 63786 {}
63785 63826 {}
63785 63827 {}
63784 63786 {}
63784 63825 {}
63784 63828 {}
45223 45225 {}
45223 65553 {}
45224 45226 {}
45224 65554 {}
65553 65555 {}
65554 65555 {}
45227 45228 {}
45227 45465 {}
45311 45312 {}
45311 45316 {}
45228 45310 {}
45465 45466 {}
45310 45311 {}
45310 45466 {}
45231 45241 {}
45231 45816 {}
45231 45818 {}
45304 45305 {}
45815 45819 {}
45817 45820 {}
45241 45305 {}
45241 45308 {}
45816 45819 {}
45818 45820 {}
45234 45236 {}
45234 45238 {}
45234 63771 {}
63772 63773 {}
63771 63773 {}
63771 63782 {}
45239 45241 {}
45239 65541 {}
45240 45304 {}
45240 65542 {}
65541 65543 {}
65542 65543 {}
45305 45306 {}
45305 45515 {}
45308 45309 {}
45308 45310 {}
45244 45254 {}
45244 45333 {}
45244 45335 {}
45255 45256 {}
45332 45336 {}
45334 45337 {}
45254 45256 {}
45254 45302 {}
45333 45336 {}
45335 45337 {}
45247 45249 {}
45247 45251 {}
45247 63746 {}
63747 63748 {}
63746 63748 {}
63746 63769 {}
45252 45254 {}
45252 65531 {}
45253 45255 {}
45253 65532 {}
65531 65533 {}
65532 65533 {}
45256 45257 {}
45256 45565 {}
45302 45303 {}
45302 45307 {}
45257 45301 {}
45565 45566 {}
45301 45302 {}
45301 45566 {}
45260 45262 {}
45260 45264 {}
45260 63703 {}
63704 63705 {}
63703 63705 {}
63703 63744 {}
45265 45267 {}
45265 65522 {}
45266 45295 {}
45266 65521 {}
65522 65523 {}
65521 65523 {}
45296 45297 {}
45296 45615 {}
45299 45300 {}
45299 45301 {}
45270 45272 {}
45270 45274 {}
45270 63679 {}
63680 63681 {}
63680 63708 {}
63680 63709 {}
63679 63681 {}
63679 63707 {}
63679 63710 {}
45275 45277 {}
45275 65512 {}
45276 45289 {}
45276 65513 {}
65512 65514 {}
65513 65514 {}
45290 45291 {}
45290 45665 {}
45293 45294 {}
45293 45298 {}
45280 45282 {}
45280 45284 {}
45280 63665 {}
63666 63667 {}
63665 63667 {}
63665 63677 {}
45285 45287 {}
45285 65500 {}
45286 45715 {}
45286 65501 {}
65500 65502 {}
65501 65502 {}
45288 45292 {}
45665 45666 {}
45716 45717 {}
45716 50294 {}
45292 45293 {}
45292 45666 {}
45291 45292 {}
45666 45667 {}
45666 45720 {}
45294 45615 {}
45298 45299 {}
45298 45616 {}
45615 45616 {}
45297 45298 {}
45616 45617 {}
45616 45726 {}
45300 45565 {}
45566 45567 {}
45566 45732 {}
45303 45515 {}
45307 45308 {}
45307 45516 {}
45515 45516 {}
45306 45307 {}
45516 45517 {}
45516 45738 {}
45309 45465 {}
45466 45467 {}
45466 45744 {}
45312 45412 {}
45316 45317 {}
45316 45413 {}
45412 45413 {}
45315 45316 {}
45413 45414 {}
45413 45416 {}
45318 45359 {}
45358 45360 {}
45358 45802 {}
45359 45360 {}
45321 45354 {}
45321 46369 {}
45321 46371 {}
45355 45356 {}
46368 46372 {}
46370 46373 {}
45354 45356 {}
45354 45802 {}
46369 46372 {}
46371 46373 {}
45323 45343 {}
45323 45344 {}
45323 45825 {}
45342 45346 {}
45345 45347 {}
45826 45828 {}
45343 45346 {}
45344 45347 {}
45825 45827 {}
45326 45327 {}
45326 45338 {}
45327 45339 {}
45338 45340 {}
45338 45825 {}
45338 45828 {}
45339 45340 {}
45339 45826 {}
45339 45827 {}
45330 45331 {}
45330 45332 {}
45330 45335 {}
45331 45333 {}
45331 45334 {}
45336 45338 {}
45336 48238 {}
45336 48240 {}
45337 45339 {}
45337 48239 {}
45337 48241 {}
48238 48242 {}
48240 48243 {}
48239 48242 {}
48241 48243 {}
45340 45341 {}
45340 45342 {}
45340 45344 {}
45828 45829 {}
45827 45830 {}
45341 45343 {}
45341 45345 {}
45346 45348 {}
45346 45351 {}
45346 63850 {}
45347 45349 {}
45347 45350 {}
45347 63851 {}
63850 63852 {}
63850 63873 {}
63851 63852 {}
45352 45354 {}
45352 65250 {}
45353 45355 {}
45353 65251 {}
65250 65252 {}
65251 65252 {}
45356 45357 {}
45356 45359 {}
45802 45803 {}
45802 45843 {}
45357 45358 {}
45360 45361 {}
45360 45363 {}
45361 45362 {}
45364 45365 {}
45364 50434 {}
45754 45755 {}
45754 45851 {}
45365 45753 {}
50434 50435 {}
45753 45754 {}
45753 50435 {}
45368 45369 {}
45369 45374 {}
45374 45375 {}
45372 45373 {}
45373 45374 {}
45375 45386 {}
45386 45387 {}
45378 45379 {}
45379 45384 {}
45384 45385 {}
45382 45383 {}
45383 45384 {}
45385 45386 {}
45387 45410 {}
45410 45411 {}
45410 45415 {}
45390 45391 {}
45391 45396 {}
45396 45397 {}
45394 45395 {}
45395 45396 {}
45397 45408 {}
45408 45409 {}
45400 45401 {}
45401 45406 {}
45406 45407 {}
45404 45405 {}
45405 45406 {}
45407 45408 {}
45409 45410 {}
45411 45416 {}
45415 45417 {}
45415 45751 {}
45416 45417 {}
45414 45415 {}
45417 45418 {}
45417 50406 {}
45751 45752 {}
45751 45753 {}
45418 45750 {}
50406 50407 {}
45750 45751 {}
45750 50407 {}
45421 45422 {}
45422 45427 {}
45427 45428 {}
45425 45426 {}
45426 45427 {}
45428 45439 {}
45439 45440 {}
45431 45432 {}
45432 45437 {}
45437 45438 {}
45435 45436 {}
45436 45437 {}
45438 45439 {}
45440 45463 {}
45463 45464 {}
45463 45468 {}
45443 45444 {}
45444 45449 {}
45449 45450 {}
45447 45448 {}
45448 45449 {}
45450 45461 {}
45461 45462 {}
45453 45454 {}
45454 45459 {}
45459 45460 {}
45457 45458 {}
45458 45459 {}
45460 45461 {}
45462 45463 {}
45464 45744 {}
45468 45745 {}
45468 45748 {}
45744 45745 {}
45467 45468 {}
45745 45746 {}
45745 50396 {}
45748 45749 {}
45748 45750 {}
45471 45472 {}
45472 45477 {}
45477 45478 {}
45475 45476 {}
45476 45477 {}
45478 45489 {}
45489 45490 {}
45481 45482 {}
45482 45487 {}
45487 45488 {}
45485 45486 {}
45486 45487 {}
45488 45489 {}
45490 45513 {}
45513 45514 {}
45513 45518 {}
45493 45494 {}
45494 45499 {}
45499 45500 {}
45497 45498 {}
45498 45499 {}
45500 45511 {}
45511 45512 {}
45503 45504 {}
45504 45509 {}
45509 45510 {}
45507 45508 {}
45508 45509 {}
45510 45511 {}
45512 45513 {}
45514 45738 {}
45518 45739 {}
45518 45742 {}
45738 45739 {}
45517 45518 {}
45739 45740 {}
45739 50368 {}
45742 45743 {}
45742 45747 {}
45521 45522 {}
45522 45527 {}
45527 45528 {}
45525 45526 {}
45526 45527 {}
45528 45539 {}
45539 45540 {}
45531 45532 {}
45532 45537 {}
45537 45538 {}
45535 45536 {}
45536 45537 {}
45538 45539 {}
45540 45563 {}
45563 45564 {}
45563 45568 {}
45543 45544 {}
45544 45549 {}
45549 45550 {}
45547 45548 {}
45548 45549 {}
45550 45561 {}
45561 45562 {}
45553 45554 {}
45554 45559 {}
45559 45560 {}
45557 45558 {}
45558 45559 {}
45560 45561 {}
45562 45563 {}
45564 45732 {}
45568 45733 {}
45568 45736 {}
45732 45733 {}
45567 45568 {}
45733 45734 {}
45733 50348 {}
45736 45737 {}
45736 45741 {}
45571 45572 {}
45572 45577 {}
45577 45578 {}
45575 45576 {}
45576 45577 {}
45578 45589 {}
45589 45590 {}
45581 45582 {}
45582 45587 {}
45587 45588 {}
45585 45586 {}
45586 45587 {}
45588 45589 {}
45590 45613 {}
45613 45614 {}
45613 45618 {}
45593 45594 {}
45594 45599 {}
45599 45600 {}
45597 45598 {}
45598 45599 {}
45600 45611 {}
45611 45612 {}
45603 45604 {}
45604 45609 {}
45609 45610 {}
45607 45608 {}
45608 45609 {}
45610 45611 {}
45612 45613 {}
45614 45726 {}
45618 45727 {}
45618 45730 {}
45726 45727 {}
45617 45618 {}
45727 45728 {}
45727 50338 {}
45730 45731 {}
45730 45735 {}
45621 45622 {}
45622 45627 {}
45627 45628 {}
45625 45626 {}
45626 45627 {}
45628 45639 {}
45639 45640 {}
45631 45632 {}
45632 45637 {}
45637 45638 {}
45635 45636 {}
45636 45637 {}
45638 45639 {}
45640 45663 {}
45663 45664 {}
45663 45668 {}
45643 45644 {}
45644 45649 {}
45649 45650 {}
45647 45648 {}
45648 45649 {}
45650 45661 {}
45661 45662 {}
45653 45654 {}
45654 45659 {}
45659 45660 {}
45657 45658 {}
45658 45659 {}
45660 45661 {}
45662 45663 {}
45664 45720 {}
45668 45721 {}
45668 45724 {}
45720 45721 {}
45667 45668 {}
45721 45722 {}
45721 50317 {}
45724 45725 {}
45724 45729 {}
45671 45672 {}
45672 45677 {}
45677 45678 {}
45675 45676 {}
45676 45677 {}
45678 45689 {}
45689 45690 {}
45681 45682 {}
45682 45687 {}
45687 45688 {}
45685 45686 {}
45686 45687 {}
45688 45689 {}
45690 45713 {}
45713 45714 {}
45713 45718 {}
45693 45694 {}
45694 45699 {}
45699 45700 {}
45697 45698 {}
45698 45699 {}
45700 45711 {}
45711 45712 {}
45703 45704 {}
45704 45709 {}
45709 45710 {}
45707 45708 {}
45708 45709 {}
45710 45711 {}
45712 45713 {}
45714 50294 {}
45718 45719 {}
45718 50295 {}
45718 50317 {}
50294 50295 {}
45717 45718 {}
45719 45723 {}
50295 50296 {}
50295 50297 {}
50295 50300 {}
50317 50318 {}
45723 45724 {}
45723 50318 {}
45722 45723 {}
50318 50319 {}
50318 50321 {}
50318 50322 {}
45725 50338 {}
45729 45730 {}
45729 50339 {}
50338 50339 {}
45728 45729 {}
50339 50340 {}
50339 50341 {}
45731 50348 {}
45735 45736 {}
45735 50349 {}
50348 50349 {}
45734 45735 {}
50349 50350 {}
50349 50351 {}
45737 50368 {}
45741 45742 {}
45741 50369 {}
50368 50369 {}
45740 45741 {}
50369 50370 {}
50369 50371 {}
45743 50396 {}
45747 45748 {}
45747 50397 {}
50396 50397 {}
45746 45747 {}
50397 50398 {}
50397 50399 {}
45749 50406 {}
50407 50408 {}
50407 50409 {}
45752 50434 {}
50435 50436 {}
50435 50437 {}
45755 45852 {}
45851 45853 {}
45851 45865 {}
45852 45853 {}
45758 45759 {}
45759 45764 {}
45764 45765 {}
45762 45763 {}
45763 45764 {}
45765 45776 {}
45776 45777 {}
45768 45769 {}
45769 45774 {}
45774 45775 {}
45772 45773 {}
45773 45774 {}
45775 45776 {}
45777 45800 {}
45800 45801 {}
45800 45847 {}
45780 45781 {}
45781 45786 {}
45786 45787 {}
45784 45785 {}
45785 45786 {}
45787 45798 {}
45798 45799 {}
45790 45791 {}
45791 45796 {}
45796 45797 {}
45794 45795 {}
45795 45796 {}
45797 45798 {}
45799 45800 {}
45801 45848 {}
45847 45849 {}
45847 45865 {}
45848 45849 {}
45803 45844 {}
45843 45845 {}
45843 45913 {}
45844 45845 {}
45806 45839 {}
45806 46695 {}
45806 46697 {}
45840 45841 {}
46694 46698 {}
46696 46699 {}
45839 45841 {}
45839 45913 {}
46695 46698 {}
46697 46699 {}
45809 45810 {}
45809 45821 {}
45810 45822 {}
45821 45823 {}
45821 45918 {}
45822 45823 {}
45813 45814 {}
45813 45815 {}
45813 45818 {}
45814 45816 {}
45814 45817 {}
45819 45821 {}
45819 48323 {}
45820 45822 {}
45820 48324 {}
48323 48325 {}
48324 48325 {}
45823 45824 {}
45823 45830 {}
45918 45919 {}
45918 45938 {}
45918 45941 {}
45918 46155 {}
45824 45829 {}
45830 45831 {}
45829 45831 {}
45829 45918 {}
45831 45832 {}
45831 45833 {}
45831 45835 {}
45831 63876 {}
45832 45834 {}
45832 45836 {}
45832 63875 {}
63876 63877 {}
63875 63877 {}
63875 63886 {}
45837 45839 {}
45837 65260 {}
45838 45840 {}
45838 65261 {}
65260 65262 {}
65261 65262 {}
45841 45842 {}
45841 45844 {}
45913 45914 {}
45913 45955 {}
45913 45956 {}
45913 46173 {}
45842 45843 {}
45845 45846 {}
45845 45848 {}
45846 45847 {}
45849 45850 {}
45849 45852 {}
45865 45866 {}
45865 45964 {}
45850 45851 {}
45853 45854 {}
45853 45855 {}
45853 45857 {}
45854 45856 {}
45854 45858 {}
45854 66213 {}
45859 62322 {}
45859 63369 {}
45860 45861 {}
45860 63371 {}
63369 63370 {}
63369 63372 {}
63369 63382 {}
63371 63372 {}
45863 45864 {}
45866 45965 {}
45964 45966 {}
45964 46085 {}
45965 45966 {}
45869 45870 {}
45870 45875 {}
45875 45876 {}
45873 45874 {}
45874 45875 {}
45876 45887 {}
45887 45888 {}
45879 45880 {}
45880 45885 {}
45885 45886 {}
45883 45884 {}
45884 45885 {}
45886 45887 {}
45888 45911 {}
45911 45912 {}
45911 45960 {}
45891 45892 {}
45892 45897 {}
45897 45898 {}
45895 45896 {}
45896 45897 {}
45898 45909 {}
45909 45910 {}
45901 45902 {}
45902 45907 {}
45907 45908 {}
45905 45906 {}
45906 45907 {}
45908 45909 {}
45910 45911 {}
45912 45961 {}
45960 45962 {}
45960 46085 {}
45961 45962 {}
45914 45954 {}
45914 45957 {}
45914 46172 {}
45955 45958 {}
45956 45959 {}
46173 46175 {}
45954 45958 {}
45957 45959 {}
46172 46174 {}
45917 45950 {}
45917 46808 {}
45917 46810 {}
45951 45952 {}
45951 46173 {}
45951 46174 {}
46807 46811 {}
46809 46812 {}
45950 45952 {}
45950 46172 {}
45950 46175 {}
46808 46811 {}
46810 46812 {}
45919 45939 {}
45919 45940 {}
45919 46154 {}
45938 45942 {}
45941 45943 {}
46155 46157 {}
45939 45942 {}
45940 45943 {}
46154 46156 {}
45922 45923 {}
45922 45934 {}
45923 45935 {}
45934 45936 {}
45934 46154 {}
45934 46157 {}
45935 45936 {}
45935 46155 {}
45935 46156 {}
45926 45927 {}
45926 45928 {}
45926 45931 {}
45927 45929 {}
45927 45930 {}
45932 45934 {}
45932 48571 {}
45933 45935 {}
45933 48572 {}
48571 48573 {}
48572 48573 {}
45936 45937 {}
45936 45938 {}
45936 45940 {}
46157 46158 {}
46156 46159 {}
45937 45939 {}
45937 45941 {}
45942 45944 {}
45942 45947 {}
45942 63888 {}
45943 45945 {}
45943 45946 {}
45943 63889 {}
63888 63890 {}
63888 63916 {}
63888 63919 {}
63889 63890 {}
63889 63917 {}
63889 63918 {}
45948 45950 {}
45948 65270 {}
45949 45951 {}
45949 65271 {}
65270 65272 {}
65271 65272 {}
45952 45953 {}
45952 45954 {}
45952 45956 {}
46175 46176 {}
46174 46177 {}
45953 45955 {}
45953 45957 {}
45958 45961 {}
45959 45960 {}
45962 45963 {}
45962 45965 {}
46085 46086 {}
46085 46184 {}
45963 45964 {}
45966 45967 {}
45966 45968 {}
45967 45969 {}
45967 66217 {}
45970 45971 {}
45970 45972 {}
45970 62327 {}
45970 63377 {}
45971 63378 {}
63377 63379 {}
63377 63410 {}
63378 63379 {}
46083 46084 {}
45974 46073 {}
46072 46074 {}
46072 46193 {}
46073 46074 {}
45977 45978 {}
45978 45983 {}
45983 45984 {}
45981 45982 {}
45982 45983 {}
45984 45995 {}
45995 45996 {}
45987 45988 {}
45988 45993 {}
45993 45994 {}
45991 45992 {}
45992 45993 {}
45994 45995 {}
45996 46019 {}
46019 46020 {}
46019 46068 {}
45999 46000 {}
46000 46005 {}
46005 46006 {}
46003 46004 {}
46004 46005 {}
46006 46017 {}
46017 46018 {}
46009 46010 {}
46010 46015 {}
46015 46016 {}
46013 46014 {}
46014 46015 {}
46016 46017 {}
46018 46019 {}
46020 46069 {}
46068 46070 {}
46068 46193 {}
46069 46070 {}
46022 46062 {}
46022 46064 {}
46022 46280 {}
46063 46066 {}
46065 46067 {}
46281 46283 {}
46062 46066 {}
46064 46067 {}
46280 46282 {}
46025 46058 {}
46025 46916 {}
46025 46918 {}
46059 46060 {}
46059 46281 {}
46059 46282 {}
46915 46919 {}
46917 46920 {}
46058 46060 {}
46058 46280 {}
46058 46283 {}
46916 46919 {}
46918 46920 {}
46027 46047 {}
46027 46048 {}
46027 46262 {}
46046 46050 {}
46049 46051 {}
46263 46265 {}
46047 46050 {}
46048 46051 {}
46262 46264 {}
46030 46031 {}
46030 46042 {}
46031 46043 {}
46042 46044 {}
46042 46262 {}
46042 46265 {}
46043 46044 {}
46043 46263 {}
46043 46264 {}
46034 46035 {}
46034 46036 {}
46034 46039 {}
46035 46037 {}
46035 46038 {}
46040 46042 {}
46040 48489 {}
46041 46043 {}
46041 48490 {}
48489 48491 {}
48490 48491 {}
46044 46045 {}
46044 46046 {}
46044 46048 {}
46265 46266 {}
46264 46267 {}
46045 46047 {}
46045 46049 {}
46050 46052 {}
46050 46055 {}
46050 63080 {}
46051 46053 {}
46051 46054 {}
46051 63081 {}
63080 63082 {}
63080 63108 {}
63080 63111 {}
63081 63082 {}
63081 63109 {}
63081 63110 {}
46056 46058 {}
46056 64525 {}
46057 46059 {}
46057 64526 {}
64525 64527 {}
64526 64527 {}
46060 46061 {}
46060 46062 {}
46060 46065 {}
46283 46284 {}
46282 46285 {}
46061 46063 {}
46061 46064 {}
46066 46069 {}
46067 46068 {}
46070 46071 {}
46070 46073 {}
46193 46194 {}
46193 46292 {}
46071 46072 {}
46074 46075 {}
46074 46076 {}
46074 46078 {}
46075 46077 {}
46075 46079 {}
46075 65833 {}
46080 46082 {}
46080 53952 {}
46080 62567 {}
46081 62568 {}
62567 62569 {}
62567 62580 {}
62568 62569 {}
46086 46185 {}
46184 46186 {}
46184 46305 {}
46185 46186 {}
46089 46090 {}
46090 46095 {}
46095 46096 {}
46093 46094 {}
46094 46095 {}
46096 46107 {}
46107 46108 {}
46099 46100 {}
46100 46105 {}
46105 46106 {}
46103 46104 {}
46104 46105 {}
46106 46107 {}
46108 46131 {}
46131 46132 {}
46131 46180 {}
46111 46112 {}
46112 46117 {}
46117 46118 {}
46115 46116 {}
46116 46117 {}
46118 46129 {}
46129 46130 {}
46121 46122 {}
46122 46127 {}
46127 46128 {}
46125 46126 {}
46126 46127 {}
46128 46129 {}
46130 46131 {}
46132 46181 {}
46180 46182 {}
46180 46305 {}
46181 46182 {}
46135 46168 {}
46135 47130 {}
46135 47132 {}
46169 46170 {}
47129 47133 {}
47131 47134 {}
46168 46170 {}
46168 46353 {}
47130 47133 {}
47132 47134 {}
46138 46139 {}
46138 46150 {}
46139 46151 {}
46150 46152 {}
46150 46358 {}
46151 46152 {}
46142 46143 {}
46142 46144 {}
46142 46147 {}
46143 46145 {}
46143 46146 {}
46148 46150 {}
46148 48739 {}
46148 48742 {}
46149 46151 {}
46149 48740 {}
46149 48741 {}
48739 48743 {}
48742 48744 {}
48740 48743 {}
48741 48744 {}
46152 46153 {}
46152 46159 {}
46358 46359 {}
46358 46378 {}
46358 46381 {}
46358 46705 {}
46153 46158 {}
46159 46160 {}
46158 46160 {}
46158 46358 {}
46160 46161 {}
46160 46162 {}
46160 46164 {}
46160 63913 {}
46161 46163 {}
46161 46165 {}
46161 63912 {}
63913 63914 {}
63912 63914 {}
63912 63953 {}
46166 46168 {}
46166 65280 {}
46167 46169 {}
46167 65281 {}
65280 65282 {}
65281 65282 {}
46170 46171 {}
46170 46177 {}
46353 46354 {}
46353 46394 {}
46171 46176 {}
46177 46178 {}
46176 46178 {}
46176 46353 {}
46178 46179 {}
46178 46181 {}
46179 46180 {}
46182 46183 {}
46182 46185 {}
46305 46306 {}
46305 46402 {}
46183 46184 {}
46186 46187 {}
46186 46188 {}
46187 46189 {}
46187 66221 {}
46190 46191 {}
46190 46192 {}
46190 62334 {}
46190 63412 {}
46191 63413 {}
63412 63414 {}
63412 63423 {}
63413 63414 {}
46303 46304 {}
46194 46293 {}
46292 46294 {}
46292 46411 {}
46293 46294 {}
46197 46198 {}
46198 46203 {}
46203 46204 {}
46201 46202 {}
46202 46203 {}
46204 46215 {}
46215 46216 {}
46207 46208 {}
46208 46213 {}
46213 46214 {}
46211 46212 {}
46212 46213 {}
46214 46215 {}
46216 46239 {}
46239 46240 {}
46239 46288 {}
46219 46220 {}
46220 46225 {}
46225 46226 {}
46223 46224 {}
46224 46225 {}
46226 46237 {}
46237 46238 {}
46229 46230 {}
46230 46235 {}
46235 46236 {}
46233 46234 {}
46234 46235 {}
46236 46237 {}
46238 46239 {}
46240 46289 {}
46288 46290 {}
46288 46411 {}
46289 46290 {}
46243 46276 {}
46243 47024 {}
46243 47026 {}
46277 46278 {}
47023 47027 {}
47025 47028 {}
46276 46278 {}
46276 46459 {}
47024 47027 {}
47026 47028 {}
46246 46247 {}
46246 46258 {}
46247 46259 {}
46258 46260 {}
46258 46464 {}
46259 46260 {}
46250 46251 {}
46250 46252 {}
46250 46255 {}
46251 46253 {}
46251 46254 {}
46256 46258 {}
46256 48655 {}
46256 48658 {}
46257 46259 {}
46257 48656 {}
46257 48657 {}
48655 48659 {}
48658 48660 {}
48656 48659 {}
48657 48660 {}
46260 46261 {}
46260 46267 {}
46464 46465 {}
46464 46484 {}
46464 46487 {}
46464 46597 {}
46261 46266 {}
46267 46268 {}
46266 46268 {}
46266 46464 {}
46268 46269 {}
46268 46270 {}
46268 46272 {}
46268 63105 {}
46269 46271 {}
46269 46273 {}
46269 63104 {}
63105 63106 {}
63104 63106 {}
63104 63132 {}
46274 46276 {}
46274 64538 {}
46275 46277 {}
46275 64539 {}
64538 64540 {}
64539 64540 {}
46278 46279 {}
46278 46285 {}
46459 46460 {}
46459 46500 {}
46279 46284 {}
46285 46286 {}
46284 46286 {}
46284 46459 {}
46286 46287 {}
46286 46289 {}
46287 46288 {}
46290 46291 {}
46290 46293 {}
46411 46412 {}
46411 46508 {}
46291 46292 {}
46294 46295 {}
46294 46296 {}
46294 46299 {}
46295 46297 {}
46295 46298 {}
46295 65837 {}
46300 46302 {}
46300 54067 {}
46300 62582 {}
46301 62583 {}
62582 62584 {}
62582 62604 {}
62583 62584 {}
46306 46403 {}
46402 46404 {}
46402 46633 {}
46403 46404 {}
46309 46310 {}
46310 46315 {}
46315 46316 {}
46313 46314 {}
46314 46315 {}
46316 46327 {}
46327 46328 {}
46319 46320 {}
46320 46325 {}
46325 46326 {}
46323 46324 {}
46324 46325 {}
46326 46327 {}
46328 46351 {}
46351 46352 {}
46351 46398 {}
46331 46332 {}
46332 46337 {}
46337 46338 {}
46335 46336 {}
46336 46337 {}
46338 46349 {}
46349 46350 {}
46341 46342 {}
46342 46347 {}
46347 46348 {}
46345 46346 {}
46346 46347 {}
46348 46349 {}
46350 46351 {}
46352 46399 {}
46398 46400 {}
46398 46633 {}
46399 46400 {}
46354 46395 {}
46394 46396 {}
46394 46681 {}
46395 46396 {}
46357 46390 {}
46357 47244 {}
46357 47246 {}
46391 46392 {}
47243 47247 {}
47245 47248 {}
46390 46392 {}
46390 46681 {}
47244 47247 {}
47246 47248 {}
46359 46379 {}
46359 46380 {}
46359 46704 {}
46378 46382 {}
46381 46383 {}
46705 46707 {}
46379 46382 {}
46380 46383 {}
46704 46706 {}
46362 46363 {}
46362 46374 {}
46363 46375 {}
46374 46376 {}
46374 46704 {}
46374 46707 {}
46375 46376 {}
46375 46705 {}
46375 46706 {}
46366 46367 {}
46366 46368 {}
46366 46371 {}
46367 46369 {}
46367 46370 {}
46372 46374 {}
46372 48826 {}
46373 46375 {}
46373 48827 {}
48826 48828 {}
48827 48828 {}
46376 46377 {}
46376 46378 {}
46376 46380 {}
46707 46708 {}
46706 46709 {}
46377 46379 {}
46377 46381 {}
46382 46384 {}
46382 46387 {}
46382 63955 {}
46383 46385 {}
46383 46386 {}
46383 63956 {}
63955 63957 {}
63955 63977 {}
63956 63957 {}
46388 46390 {}
46388 65290 {}
46389 46391 {}
46389 65291 {}
65290 65292 {}
65291 65292 {}
46392 46393 {}
46392 46395 {}
46681 46682 {}
46681 46722 {}
46393 46394 {}
46396 46397 {}
46396 46399 {}
46397 46398 {}
46400 46401 {}
46400 46403 {}
46633 46634 {}
46633 46730 {}
46401 46402 {}
46404 46405 {}
46404 46406 {}
46405 46407 {}
46405 66225 {}
46408 46409 {}
46408 46410 {}
46408 62343 {}
46408 63425 {}
46409 63426 {}
63425 63427 {}
63425 63447 {}
63426 63427 {}
46523 46524 {}
46412 46509 {}
46508 46510 {}
46508 46525 {}
46509 46510 {}
46415 46416 {}
46416 46421 {}
46421 46422 {}
46419 46420 {}
46420 46421 {}
46422 46433 {}
46433 46434 {}
46425 46426 {}
46426 46431 {}
46431 46432 {}
46429 46430 {}
46430 46431 {}
46432 46433 {}
46434 46457 {}
46457 46458 {}
46457 46504 {}
46437 46438 {}
46438 46443 {}
46443 46444 {}
46441 46442 {}
46442 46443 {}
46444 46455 {}
46455 46456 {}
46447 46448 {}
46448 46453 {}
46453 46454 {}
46451 46452 {}
46452 46453 {}
46454 46455 {}
46456 46457 {}
46458 46505 {}
46504 46506 {}
46504 46525 {}
46505 46506 {}
46460 46501 {}
46500 46502 {}
46500 46573 {}
46501 46502 {}
46463 46496 {}
46463 47348 {}
46463 47350 {}
46497 46498 {}
47347 47351 {}
47349 47352 {}
46496 46498 {}
46496 46573 {}
47348 47351 {}
47350 47352 {}
46465 46485 {}
46465 46486 {}
46465 46596 {}
46484 46488 {}
46487 46489 {}
46597 46599 {}
46485 46488 {}
46486 46489 {}
46596 46598 {}
46468 46469 {}
46468 46480 {}
46469 46481 {}
46480 46482 {}
46480 46596 {}
46480 46599 {}
46481 46482 {}
46481 46597 {}
46481 46598 {}
46472 46473 {}
46472 46474 {}
46472 46477 {}
46473 46475 {}
46473 46476 {}
46478 46480 {}
46478 48908 {}
46478 48911 {}
46479 46481 {}
46479 48909 {}
46479 48910 {}
48908 48912 {}
48911 48913 {}
48909 48912 {}
48910 48913 {}
46482 46483 {}
46482 46484 {}
46482 46486 {}
46599 46600 {}
46598 46601 {}
46483 46485 {}
46483 46487 {}
46488 46490 {}
46488 46493 {}
46488 63134 {}
46489 46491 {}
46489 46492 {}
46489 63135 {}
63134 63136 {}
63134 63145 {}
63135 63136 {}
46494 46496 {}
46494 64552 {}
46495 46497 {}
46495 64553 {}
64552 64554 {}
64553 64554 {}
46498 46499 {}
46498 46501 {}
46573 46574 {}
46573 46614 {}
46499 46500 {}
46502 46503 {}
46502 46505 {}
46503 46504 {}
46506 46507 {}
46506 46509 {}
46525 46526 {}
46525 46622 {}
46507 46508 {}
46510 46511 {}
46510 46512 {}
46510 46515 {}
46511 46513 {}
46511 46514 {}
46511 65841 {}
46516 46518 {}
46516 54183 {}
46516 62606 {}
46517 62607 {}
62606 62608 {}
62606 62640 {}
62607 62608 {}
46521 46522 {}
46520 53946 {}
46520 54178 {}
46520 59875 {}
46520 59991 {}
46520 60106 {}
46520 60221 {}
46520 60335 {}
46520 60451 {}
46520 60567 {}
46520 60681 {}
46520 60791 {}
46520 60903 {}
46520 61015 {}
46520 61129 {}
46520 61216 {}
46520 61304 {}
46520 61311 {}
46520 61401 {}
46520 61574 {}
46520 61581 {}
46520 61752 {}
46520 61842 {}
46520 61849 {}
46520 62020 {}
46520 62110 {}
46520 62202 {}
46520 62209 {}
46520 62230 {}
46520 62237 {}
46520 62259 {}
46520 62273 {}
46520 62287 {}
46520 62293 {}
46520 62307 {}
46520 62321 {}
46520 62328 {}
46520 62336 {}
46520 62342 {}
46520 62349 {}
46520 62357 {}
46520 62364 {}
46520 62370 {}
46520 62378 {}
46520 62385 {}
46520 62391 {}
46520 62399 {}
46520 62405 {}
46520 62413 {}
46520 62419 {}
46520 62426 {}
46520 62434 {}
46520 62440 {}
46520 62447 {}
46520 62455 {}
46520 62461 {}
46520 62469 {}
46520 62475 {}
46520 62483 {}
46520 62490 {}
46520 62496 {}
46520 62503 {}
46520 62511 {}
46520 62518 {}
46520 62525 {}
46520 62532 {}
46520 62538 {}
46520 64503 {}
46520 64516 {}
46520 64529 {}
46520 64543 {}
46520 64556 {}
46520 64569 {}
46520 64582 {}
46520 64595 {}
46520 64608 {}
46520 64622 {}
46520 64635 {}
46520 64648 {}
46520 64661 {}
46520 64674 {}
46520 64687 {}
46520 64700 {}
46520 64713 {}
46520 64726 {}
46520 64739 {}
46520 64752 {}
46520 64766 {}
46520 64779 {}
46520 64792 {}
46520 64806 {}
46520 64820 {}
46520 64833 {}
46520 64847 {}
46520 64861 {}
46520 64874 {}
46520 64887 {}
46520 64900 {}
46520 64914 {}
46520 64927 {}
46520 64937 {}
46520 64944 {}
46520 64954 {}
46520 64967 {}
46520 64974 {}
46520 64984 {}
46520 64994 {}
46520 65008 {}
46520 65015 {}
46520 65025 {}
46520 65038 {}
46520 65045 {}
46520 65055 {}
46520 65069 {}
46520 65076 {}
46520 65089 {}
46520 65096 {}
46520 65106 {}
46520 65116 {}
46520 65126 {}
46520 65136 {}
46520 65146 {}
46520 65156 {}
46520 65167 {}
46520 65177 {}
46520 65187 {}
46520 65198 {}
46520 65211 {}
46520 65218 {}
46520 65228 {}
46520 65242 {}
46520 65249 {}
46520 65259 {}
46520 65269 {}
46520 65279 {}
46520 65289 {}
46520 65299 {}
46520 65309 {}
46520 65319 {}
46520 65329 {}
46520 65339 {}
46520 65352 {}
46520 65359 {}
46520 65369 {}
46520 65379 {}
46520 65389 {}
46520 65399 {}
46520 65409 {}
46520 65422 {}
46520 65429 {}
46520 65439 {}
46520 65449 {}
46520 65462 {}
46520 65472 {}
46520 65479 {}
46520 65490 {}
46520 65504 {}
46520 65511 {}
46520 65525 {}
46520 65535 {}
46520 65545 {}
46520 65552 {}
46520 65566 {}
46520 65573 {}
46520 65580 {}
46520 65587 {}
46520 65594 {}
46520 65601 {}
46520 65608 {}
46520 65615 {}
46520 65622 {}
46520 65629 {}
46520 65636 {}
46520 65643 {}
46520 65650 {}
46520 65657 {}
46520 65664 {}
46520 65671 {}
46520 65678 {}
46520 65685 {}
46520 65692 {}
46520 65699 {}
46520 65706 {}
46520 65713 {}
46520 65720 {}
46520 65727 {}
46520 65734 {}
46520 65741 {}
46520 65748 {}
46520 65755 {}
46520 65762 {}
46520 65769 {}
46520 65776 {}
46520 65783 {}
46520 65790 {}
46520 65796 {}
46520 65800 {}
46520 65804 {}
46520 65808 {}
46520 65812 {}
46520 65816 {}
46520 65820 {}
46520 65824 {}
46520 65828 {}
46520 65832 {}
46520 65836 {}
46520 65840 {}
46520 65844 {}
46520 65848 {}
46520 65852 {}
46520 65856 {}
46520 65860 {}
46520 65864 {}
46520 65868 {}
46520 65872 {}
46520 65876 {}
46520 65880 {}
46520 65884 {}
46520 65888 {}
46520 65892 {}
46520 65896 {}
46520 65900 {}
46520 65904 {}
46520 65908 {}
46520 65912 {}
46520 65916 {}
46520 65920 {}
46520 65924 {}
46520 65928 {}
46520 65932 {}
46520 65936 {}
46520 65940 {}
46520 65944 {}
46520 65948 {}
46520 65952 {}
46520 65956 {}
46520 65960 {}
46520 65964 {}
46520 65968 {}
46520 65972 {}
46520 65976 {}
46520 65980 {}
46520 65984 {}
46520 65988 {}
46520 65992 {}
46520 65996 {}
46520 66000 {}
46520 66004 {}
46520 66008 {}
46520 66012 {}
46520 66016 {}
46520 66020 {}
46520 66024 {}
46520 66028 {}
46520 66032 {}
46520 66036 {}
46520 66040 {}
46520 66044 {}
46520 66048 {}
46520 66052 {}
46520 66056 {}
46520 66060 {}
46520 66064 {}
46520 66068 {}
46520 66072 {}
46520 66076 {}
46520 66080 {}
46520 66084 {}
46520 66088 {}
46520 66092 {}
46520 66096 {}
46520 66100 {}
46520 66104 {}
46520 66108 {}
46520 66112 {}
46520 66116 {}
46520 66120 {}
46520 66124 {}
46520 66128 {}
46520 66132 {}
46520 66136 {}
46520 66140 {}
46520 66144 {}
46520 66148 {}
46520 66152 {}
46520 66156 {}
46520 66160 {}
46520 66164 {}
46520 66168 {}
46520 66172 {}
46520 66176 {}
46520 66180 {}
46520 66184 {}
46520 66188 {}
46520 66192 {}
46520 66196 {}
46520 66200 {}
46520 66204 {}
46520 66208 {}
46520 66212 {}
46520 66216 {}
46520 66220 {}
46520 66224 {}
46520 66228 {}
46520 66232 {}
46520 66236 {}
46520 66240 {}
46520 66244 {}
46520 66248 {}
46520 66252 {}
46520 66256 {}
46520 66260 {}
46520 66264 {}
46520 66268 {}
46520 66272 {}
46520 66276 {}
46520 66280 {}
46520 66284 {}
46520 66288 {}
46520 66292 {}
46520 66296 {}
46520 66300 {}
46520 66304 {}
47600 47601 {}
48915 48916 {}
50364 50365 {}
50384 50385 {}
50422 50423 {}
62576 62577 {}
62651 62652 {}
62677 62678 {}
62804 62805 {}
62879 62880 {}
62934 62935 {}
63014 63015 {}
63117 63118 {}
63297 63298 {}
63359 63360 {}
63395 63396 {}
63469 63470 {}
63495 63496 {}
63521 63522 {}
63596 63597 {}
63699 63700 {}
63729 63730 {}
63804 63805 {}
63908 63909 {}
63938 63939 {}
64119 64120 {}
64213 64214 {}
64223 64224 {}
64229 64230 {}
64244 64245 {}
64254 64255 {}
64270 64271 {}
64284 64285 {}
64290 64291 {}
64305 64306 {}
64315 64316 {}
64321 64322 {}
64327 64328 {}
64337 64338 {}
64348 64349 {}
64372 64373 {}
64386 64387 {}
64392 64393 {}
64406 64407 {}
64412 64413 {}
64418 64419 {}
64424 64425 {}
64439 64440 {}
64464 64465 {}
64477 64478 {}
64485 64486 {}
64491 64492 {}
53946 53948 {}
53946 54063 {}
53946 54292 {}
53946 54520 {}
53946 54748 {}
53946 54858 {}
53946 55192 {}
53946 55279 {}
53946 55455 {}
53946 55544 {}
53946 55633 {}
53946 55720 {}
53946 56261 {}
53946 56274 {}
53946 56287 {}
53946 56300 {}
53946 56313 {}
53946 56326 {}
60106 60108 {}
60221 60224 {}
60681 60682 {}
61129 61130 {}
61304 61306 {}
61311 61396 {}
61574 61576 {}
61752 61754 {}
62209 62218 {}
62230 62232 {}
62259 62260 {}
62273 62274 {}
62307 62316 {}
62321 62325 {}
62328 62330 {}
62336 62339 {}
62342 62344 {}
62349 62351 {}
62357 62360 {}
62364 62365 {}
62385 62386 {}
62405 62407 {}
62419 62421 {}
62440 62442 {}
62447 62449 {}
62455 62456 {}
62490 62491 {}
62518 62519 {}
62532 62533 {}
46522 46523 {}
46526 46623 {}
46622 46624 {}
46622 46852 {}
46623 46624 {}
46529 46530 {}
46530 46535 {}
46535 46536 {}
46533 46534 {}
46534 46535 {}
46536 46547 {}
46547 46548 {}
46539 46540 {}
46540 46545 {}
46545 46546 {}
46543 46544 {}
46544 46545 {}
46546 46547 {}
46548 46571 {}
46571 46572 {}
46571 46618 {}
46551 46552 {}
46552 46557 {}
46557 46558 {}
46555 46556 {}
46556 46557 {}
46558 46569 {}
46569 46570 {}
46561 46562 {}
46562 46567 {}
46567 46568 {}
46565 46566 {}
46566 46567 {}
46568 46569 {}
46570 46571 {}
46572 46619 {}
46618 46620 {}
46618 46852 {}
46619 46620 {}
46574 46615 {}
46614 46616 {}
46614 46900 {}
46615 46616 {}
46577 46610 {}
46577 47554 {}
46577 47556 {}
46611 46612 {}
47553 47557 {}
47555 47558 {}
46610 46612 {}
46610 46900 {}
47554 47557 {}
47556 47558 {}
46580 46581 {}
46580 46592 {}
46581 46593 {}
46592 46594 {}
46592 46905 {}
46593 46594 {}
46584 46585 {}
46584 46586 {}
46584 46589 {}
46585 46587 {}
46585 46588 {}
46590 46592 {}
46590 48996 {}
46590 48998 {}
46591 46593 {}
46591 48997 {}
46591 48999 {}
48996 49000 {}
48998 49001 {}
48997 49000 {}
48999 49001 {}
46594 46595 {}
46594 46601 {}
46905 46906 {}
46905 46925 {}
46595 46600 {}
46601 46602 {}
46600 46602 {}
46600 46905 {}
46602 46603 {}
46602 46604 {}
46602 46606 {}
46602 63148 {}
46603 46605 {}
46603 46607 {}
46603 63147 {}
63148 63149 {}
63147 63149 {}
63147 63181 {}
46608 46610 {}
46608 64565 {}
46609 46611 {}
46609 64566 {}
64565 64567 {}
64566 64567 {}
46612 46613 {}
46612 46615 {}
46900 46901 {}
46900 46940 {}
46900 46942 {}
46900 47048 {}
46613 46614 {}
46616 46617 {}
46616 46619 {}
46617 46618 {}
46620 46621 {}
46620 46623 {}
46852 46853 {}
46852 46949 {}
46621 46622 {}
46624 46625 {}
46624 46626 {}
46624 46628 {}
46625 46627 {}
46625 46629 {}
46625 65845 {}
46630 54296 {}
46630 62642 {}
46631 46632 {}
46631 62643 {}
62642 62644 {}
62642 62666 {}
62643 62644 {}
46741 46742 {}
46634 46731 {}
46730 46732 {}
46730 46744 {}
46731 46732 {}
46653 46654 {}
46657 46658 {}
46665 46666 {}
46673 46674 {}
46659 46660 {}
46651 46652 {}
46667 46668 {}
46669 46670 {}
46652 46655 {}
46655 46656 {}
46654 46655 {}
46656 46663 {}
46663 46664 {}
46658 46661 {}
46661 46662 {}
46660 46661 {}
46662 46663 {}
46664 46679 {}
46679 46680 {}
46679 46726 {}
46666 46675 {}
46675 46676 {}
46668 46671 {}
46671 46672 {}
46670 46671 {}
46672 46677 {}
46677 46678 {}
46674 46675 {}
46676 46677 {}
46678 46679 {}
46680 46727 {}
46726 46728 {}
46726 46744 {}
46727 46728 {}
46682 46723 {}
46722 46724 {}
46722 46792 {}
46723 46724 {}
46685 46718 {}
46685 47455 {}
46685 47457 {}
46719 46720 {}
47454 47458 {}
47456 47459 {}
46718 46720 {}
46718 46792 {}
47455 47458 {}
47457 47459 {}
46688 46689 {}
46688 46700 {}
46689 46701 {}
46700 46702 {}
46700 46797 {}
46701 46702 {}
46692 46693 {}
46692 46694 {}
46692 46697 {}
46693 46695 {}
46693 46696 {}
46698 46700 {}
46698 49080 {}
46699 46701 {}
46699 49081 {}
49080 49082 {}
49081 49082 {}
46702 46703 {}
46702 46709 {}
46797 46798 {}
46797 46817 {}
46797 46820 {}
46797 47140 {}
46703 46708 {}
46709 46710 {}
46708 46710 {}
46708 46797 {}
46710 46711 {}
46710 46712 {}
46710 46714 {}
46710 63980 {}
46711 46713 {}
46711 46715 {}
46711 63979 {}
63980 63981 {}
63979 63981 {}
63979 64001 {}
46716 46718 {}
46716 65300 {}
46717 46719 {}
46717 65301 {}
65300 65302 {}
65301 65302 {}
46720 46721 {}
46720 46723 {}
46792 46793 {}
46792 46834 {}
46792 46836 {}
46792 47158 {}
46721 46722 {}
46724 46725 {}
46724 46727 {}
46725 46726 {}
46728 46729 {}
46728 46731 {}
46744 46745 {}
46744 46843 {}
46729 46730 {}
46732 46733 {}
46732 46734 {}
46732 46737 {}
46733 46735 {}
46733 46736 {}
46733 66229 {}
46738 62350 {}
46738 63449 {}
46739 46740 {}
46739 63450 {}
63449 63451 {}
63449 63473 {}
63450 63451 {}
46742 46743 {}
46745 46844 {}
46843 46845 {}
46843 47070 {}
46844 46845 {}
46748 46749 {}
46749 46754 {}
46754 46755 {}
46752 46753 {}
46753 46754 {}
46755 46766 {}
46766 46767 {}
46758 46759 {}
46759 46764 {}
46764 46765 {}
46762 46763 {}
46763 46764 {}
46765 46766 {}
46767 46790 {}
46790 46791 {}
46790 46839 {}
46770 46771 {}
46771 46776 {}
46776 46777 {}
46774 46775 {}
46775 46776 {}
46777 46788 {}
46788 46789 {}
46780 46781 {}
46781 46786 {}
46786 46787 {}
46784 46785 {}
46785 46786 {}
46787 46788 {}
46789 46790 {}
46791 46840 {}
46839 46841 {}
46839 47070 {}
46840 46841 {}
46793 46833 {}
46793 46835 {}
46793 47157 {}
46834 46837 {}
46836 46838 {}
47158 47160 {}
46833 46837 {}
46835 46838 {}
47157 47159 {}
46796 46829 {}
46796 47665 {}
46796 47667 {}
46830 46831 {}
46830 47158 {}
46830 47159 {}
47664 47668 {}
47666 47669 {}
46829 46831 {}
46829 47157 {}
46829 47160 {}
47665 47668 {}
47667 47669 {}
46798 46818 {}
46798 46819 {}
46798 47139 {}
46817 46821 {}
46820 46822 {}
47140 47142 {}
46818 46821 {}
46819 46822 {}
47139 47141 {}
46801 46802 {}
46801 46813 {}
46802 46814 {}
46813 46815 {}
46813 47139 {}
46813 47142 {}
46814 46815 {}
46814 47140 {}
46814 47141 {}
46805 46806 {}
46805 46807 {}
46805 46810 {}
46806 46808 {}
46806 46809 {}
46811 46813 {}
46811 49246 {}
46812 46814 {}
46812 49247 {}
49246 49248 {}
49247 49248 {}
46815 46816 {}
46815 46817 {}
46815 46819 {}
47142 47143 {}
47141 47144 {}
46816 46818 {}
46816 46820 {}
46821 46823 {}
46821 46826 {}
46821 64003 {}
46822 46824 {}
46822 46825 {}
46822 64004 {}
64003 64005 {}
64003 64031 {}
64003 64034 {}
64004 64005 {}
64004 64032 {}
64004 64033 {}
46827 46829 {}
46827 65310 {}
46828 46830 {}
46828 65311 {}
65310 65312 {}
65311 65312 {}
46831 46832 {}
46831 46833 {}
46831 46836 {}
47160 47161 {}
47159 47162 {}
46832 46834 {}
46832 46835 {}
46837 46840 {}
46838 46839 {}
46841 46842 {}
46841 46844 {}
47070 47071 {}
47070 47169 {}
46842 46843 {}
46845 46846 {}
46845 46847 {}
46846 46848 {}
46846 66233 {}
46849 46850 {}
46849 46851 {}
46849 62356 {}
46849 63475 {}
46850 63476 {}
63475 63477 {}
63475 63499 {}
63476 63477 {}
46960 46961 {}
46853 46950 {}
46949 46951 {}
46949 46962 {}
46950 46951 {}
46872 46873 {}
46892 46893 {}
46880 46881 {}
46884 46885 {}
46860 46861 {}
46861 46876 {}
46876 46877 {}
46888 46889 {}
46874 46875 {}
46878 46879 {}
46873 46890 {}
46890 46891 {}
46875 46876 {}
46877 46886 {}
46886 46887 {}
46879 46882 {}
46882 46883 {}
46881 46882 {}
46883 46886 {}
46885 46894 {}
46894 46895 {}
46887 46898 {}
46898 46899 {}
46898 46945 {}
46889 46890 {}
46891 46896 {}
46896 46897 {}
46893 46894 {}
46895 46896 {}
46897 46898 {}
46899 46946 {}
46945 46947 {}
46945 46962 {}
46946 46947 {}
46901 46939 {}
46901 46941 {}
46901 47047 {}
46940 46943 {}
46942 46944 {}
47048 47050 {}
46939 46943 {}
46941 46944 {}
47047 47049 {}
46904 46935 {}
46904 47768 {}
46904 47770 {}
46936 46937 {}
46936 47048 {}
46936 47049 {}
47767 47771 {}
47769 47772 {}
46935 46937 {}
46935 47047 {}
46935 47050 {}
47768 47771 {}
47770 47772 {}
46906 46926 {}
46925 46927 {}
46925 47013 {}
46926 46927 {}
46909 46910 {}
46909 46921 {}
46910 46922 {}
46921 46923 {}
46921 47013 {}
46922 46923 {}
46913 46914 {}
46913 46915 {}
46913 46918 {}
46914 46916 {}
46914 46917 {}
46919 46921 {}
46919 49164 {}
46920 46922 {}
46920 49165 {}
49164 49166 {}
49165 49166 {}
46923 46924 {}
46923 46926 {}
47013 47014 {}
47013 47033 {}
46924 46925 {}
46927 46928 {}
46927 46929 {}
46927 46931 {}
46927 63184 {}
46928 46930 {}
46928 46932 {}
46928 63183 {}
63184 63185 {}
63184 63199 {}
63184 63200 {}
63183 63185 {}
63183 63198 {}
63183 63201 {}
46933 46935 {}
46933 64578 {}
46934 46936 {}
46934 64579 {}
64578 64580 {}
64579 64580 {}
46937 46938 {}
46937 46939 {}
46937 46942 {}
47050 47051 {}
47049 47052 {}
46938 46940 {}
46938 46941 {}
46943 46946 {}
46944 46945 {}
46947 46948 {}
46947 46950 {}
46962 46963 {}
46962 47059 {}
46948 46949 {}
46951 46952 {}
46951 46953 {}
46951 46955 {}
46952 46954 {}
46952 46956 {}
46952 65849 {}
46957 46959 {}
46957 54409 {}
46957 62668 {}
46958 62669 {}
62668 62670 {}
62668 62681 {}
62669 62670 {}
46963 47060 {}
47059 47061 {}
47059 47284 {}
47060 47061 {}
46966 46967 {}
46967 46972 {}
46972 46973 {}
46970 46971 {}
46971 46972 {}
46973 46984 {}
46984 46985 {}
46976 46977 {}
46977 46982 {}
46982 46983 {}
46980 46981 {}
46981 46982 {}
46983 46984 {}
46985 47008 {}
47008 47009 {}
47008 47055 {}
46988 46989 {}
46989 46994 {}
46994 46995 {}
46992 46993 {}
46993 46994 {}
46995 47006 {}
47006 47007 {}
46998 46999 {}
46999 47004 {}
47004 47005 {}
47002 47003 {}
47003 47004 {}
47005 47006 {}
47007 47008 {}
47009 47056 {}
47055 47057 {}
47055 47284 {}
47056 47057 {}
47012 47043 {}
47012 47871 {}
47012 47873 {}
47044 47045 {}
47870 47874 {}
47872 47875 {}
47043 47045 {}
47043 47332 {}
47871 47874 {}
47873 47875 {}
47014 47034 {}
47033 47035 {}
47033 47337 {}
47034 47035 {}
47017 47018 {}
47017 47029 {}
47018 47030 {}
47029 47031 {}
47029 47337 {}
47030 47031 {}
47021 47022 {}
47021 47023 {}
47021 47026 {}
47022 47024 {}
47022 47025 {}
47027 47029 {}
47027 49412 {}
47027 49415 {}
47028 47030 {}
47028 49413 {}
47028 49414 {}
49412 49416 {}
49415 49417 {}
49413 49416 {}
49414 49417 {}
47031 47032 {}
47031 47034 {}
47337 47338 {}
47337 47358 {}
47337 47359 {}
47337 47563 {}
47032 47033 {}
47035 47036 {}
47035 47037 {}
47035 47039 {}
47035 63195 {}
47036 47038 {}
47036 47040 {}
47036 63194 {}
63195 63196 {}
63194 63196 {}
63194 63234 {}
47041 47043 {}
47041 64591 {}
47042 47044 {}
47042 64592 {}
64591 64593 {}
64592 64593 {}
47045 47046 {}
47045 47052 {}
47332 47333 {}
47332 47373 {}
47046 47051 {}
47052 47053 {}
47051 47053 {}
47051 47332 {}
47053 47054 {}
47053 47056 {}
47054 47055 {}
47057 47058 {}
47057 47060 {}
47284 47285 {}
47284 47381 {}
47058 47059 {}
47061 47062 {}
47061 47063 {}
47061 47066 {}
47062 47064 {}
47062 47065 {}
47062 65853 {}
47067 47069 {}
47067 54524 {}
47067 62683 {}
47068 62684 {}
62683 62685 {}
62683 62716 {}
62684 62685 {}
47178 47179 {}
47071 47170 {}
47169 47171 {}
47169 47180 {}
47170 47171 {}
47074 47075 {}
47075 47080 {}
47080 47081 {}
47078 47079 {}
47079 47080 {}
47081 47092 {}
47092 47093 {}
47084 47085 {}
47085 47090 {}
47090 47091 {}
47088 47089 {}
47089 47090 {}
47091 47092 {}
47093 47116 {}
47116 47117 {}
47116 47165 {}
47096 47097 {}
47097 47102 {}
47102 47103 {}
47100 47101 {}
47101 47102 {}
47103 47114 {}
47114 47115 {}
47106 47107 {}
47107 47112 {}
47112 47113 {}
47110 47111 {}
47111 47112 {}
47113 47114 {}
47115 47116 {}
47117 47166 {}
47165 47167 {}
47165 47180 {}
47166 47167 {}
47120 47153 {}
47120 47978 {}
47120 47980 {}
47154 47155 {}
47977 47981 {}
47979 47982 {}
47153 47155 {}
47153 47228 {}
47978 47981 {}
47980 47982 {}
47123 47124 {}
47123 47135 {}
47124 47136 {}
47135 47137 {}
47135 47233 {}
47136 47137 {}
47127 47128 {}
47127 47129 {}
47127 47132 {}
47128 47130 {}
47128 47131 {}
47133 47135 {}
47133 49330 {}
47134 47136 {}
47134 49331 {}
49330 49332 {}
49331 49332 {}
47137 47138 {}
47137 47144 {}
47233 47234 {}
47233 47253 {}
47138 47143 {}
47144 47145 {}
47143 47145 {}
47143 47233 {}
47145 47146 {}
47145 47147 {}
47145 47149 {}
47145 64028 {}
47146 47148 {}
47146 47150 {}
47146 64027 {}
64028 64029 {}
64027 64029 {}
64027 64054 {}
47151 47153 {}
47151 65320 {}
47152 47154 {}
47152 65321 {}
65320 65322 {}
65321 65322 {}
47155 47156 {}
47155 47162 {}
47228 47229 {}
47228 47267 {}
47156 47161 {}
47162 47163 {}
47161 47163 {}
47161 47228 {}
47163 47164 {}
47163 47166 {}
47164 47165 {}
47167 47168 {}
47167 47170 {}
47180 47181 {}
47180 47275 {}
47168 47169 {}
47171 47172 {}
47171 47173 {}
47172 47174 {}
47172 66237 {}
47175 47176 {}
47175 47177 {}
47175 62362 {}
47175 63501 {}
47176 63502 {}
63501 63503 {}
63501 63536 {}
63502 63503 {}
47181 47276 {}
47275 47277 {}
47275 47394 {}
47276 47277 {}
47184 47185 {}
47185 47190 {}
47190 47191 {}
47188 47189 {}
47189 47190 {}
47191 47202 {}
47202 47203 {}
47194 47195 {}
47195 47200 {}
47200 47201 {}
47198 47199 {}
47199 47200 {}
47201 47202 {}
47203 47226 {}
47226 47227 {}
47226 47271 {}
47206 47207 {}
47207 47212 {}
47212 47213 {}
47210 47211 {}
47211 47212 {}
47213 47224 {}
47224 47225 {}
47216 47217 {}
47217 47222 {}
47222 47223 {}
47220 47221 {}
47221 47222 {}
47223 47224 {}
47225 47226 {}
47227 47272 {}
47271 47273 {}
47271 47394 {}
47272 47273 {}
47229 47268 {}
47267 47269 {}
47267 47442 {}
47268 47269 {}
47232 47263 {}
47232 48199 {}
47232 48201 {}
47264 47265 {}
48198 48202 {}
48200 48203 {}
47263 47265 {}
47263 47442 {}
48199 48202 {}
48201 48203 {}
47234 47254 {}
47253 47255 {}
47253 47444 {}
47254 47255 {}
47237 47238 {}
47237 47249 {}
47238 47250 {}
47249 47251 {}
47249 47444 {}
47250 47251 {}
47241 47242 {}
47241 47243 {}
47241 47246 {}
47242 47244 {}
47242 47245 {}
47247 47249 {}
47247 49498 {}
47248 47250 {}
47248 49499 {}
49498 49500 {}
49499 49500 {}
47251 47252 {}
47251 47254 {}
47444 47445 {}
47444 47464 {}
47252 47253 {}
47255 47256 {}
47255 47257 {}
47255 47259 {}
47255 64057 {}
47256 47258 {}
47256 47260 {}
47256 64056 {}
64057 64058 {}
64057 64086 {}
64057 64087 {}
64056 64058 {}
64056 64085 {}
64056 64088 {}
47261 47263 {}
47261 65330 {}
47262 47264 {}
47262 65331 {}
65330 65332 {}
65331 65332 {}
47265 47266 {}
47265 47268 {}
47442 47443 {}
47442 47478 {}
47266 47267 {}
47269 47270 {}
47269 47272 {}
47270 47271 {}
47273 47274 {}
47273 47276 {}
47394 47395 {}
47394 47486 {}
47274 47275 {}
47277 47278 {}
47277 47279 {}
47278 47280 {}
47278 66241 {}
47281 47282 {}
47281 47283 {}
47281 62369 {}
47281 63538 {}
47282 63539 {}
63538 63540 {}
63538 63560 {}
63539 63540 {}
47392 47393 {}
47285 47382 {}
47381 47383 {}
47381 47495 {}
47382 47383 {}
47288 47289 {}
47289 47294 {}
47294 47295 {}
47292 47293 {}
47293 47294 {}
47295 47306 {}
47306 47307 {}
47298 47299 {}
47299 47304 {}
47304 47305 {}
47302 47303 {}
47303 47304 {}
47305 47306 {}
47307 47330 {}
47330 47331 {}
47330 47377 {}
47310 47311 {}
47311 47316 {}
47316 47317 {}
47314 47315 {}
47315 47316 {}
47317 47328 {}
47328 47329 {}
47320 47321 {}
47321 47326 {}
47326 47327 {}
47324 47325 {}
47325 47326 {}
47327 47328 {}
47329 47330 {}
47331 47378 {}
47377 47379 {}
47377 47495 {}
47378 47379 {}
47333 47374 {}
47373 47375 {}
47373 47543 {}
47374 47375 {}
47336 47369 {}
47336 48092 {}
47336 48094 {}
47370 47371 {}
48091 48095 {}
48093 48096 {}
47369 47371 {}
47369 47543 {}
48092 48095 {}
48094 48096 {}
47338 47357 {}
47338 47360 {}
47338 47564 {}
47358 47361 {}
47359 47362 {}
47563 47565 {}
47357 47361 {}
47360 47362 {}
47564 47566 {}
47341 47342 {}
47341 47353 {}
47342 47354 {}
47353 47355 {}
47353 47564 {}
47353 47565 {}
47354 47355 {}
47354 47563 {}
47354 47566 {}
47345 47346 {}
47345 47347 {}
47345 47350 {}
47346 47348 {}
47346 47349 {}
47351 47353 {}
47351 49580 {}
47351 49583 {}
47352 47354 {}
47352 49581 {}
47352 49582 {}
49580 49584 {}
49583 49585 {}
49581 49584 {}
49582 49585 {}
47355 47356 {}
47355 47357 {}
47355 47359 {}
47565 47567 {}
47566 47568 {}
47356 47358 {}
47356 47360 {}
47361 47363 {}
47361 47365 {}
47361 63237 {}
47362 47364 {}
47362 47366 {}
47362 63236 {}
63237 63238 {}
63237 63252 {}
63237 63253 {}
63236 63238 {}
63236 63251 {}
63236 63254 {}
47367 47369 {}
47367 64609 {}
47368 47370 {}
47368 64610 {}
64609 64611 {}
64610 64611 {}
47371 47372 {}
47371 47374 {}
47543 47544 {}
47543 47581 {}
47372 47373 {}
47375 47376 {}
47375 47378 {}
47376 47377 {}
47379 47380 {}
47379 47382 {}
47495 47496 {}
47495 47589 {}
47380 47381 {}
47383 47384 {}
47383 47385 {}
47383 47387 {}
47384 47386 {}
47384 47388 {}
47384 65857 {}
47389 47391 {}
47389 54639 {}
47389 62718 {}
47390 62719 {}
62718 62720 {}
62718 62729 {}
62719 62720 {}
47395 47487 {}
47486 47488 {}
47486 47604 {}
47487 47488 {}
47398 47399 {}
47399 47404 {}
47404 47405 {}
47402 47403 {}
47403 47404 {}
47405 47416 {}
47416 47417 {}
47408 47409 {}
47409 47414 {}
47414 47415 {}
47412 47413 {}
47413 47414 {}
47415 47416 {}
47417 47440 {}
47440 47441 {}
47440 47482 {}
47420 47421 {}
47421 47426 {}
47426 47427 {}
47424 47425 {}
47425 47426 {}
47427 47438 {}
47438 47439 {}
47430 47431 {}
47431 47436 {}
47436 47437 {}
47434 47435 {}
47435 47436 {}
47437 47438 {}
47439 47440 {}
47441 47483 {}
47482 47484 {}
47482 47604 {}
47483 47484 {}
47443 47479 {}
47478 47480 {}
47478 47652 {}
47479 47480 {}
47445 47465 {}
47464 47466 {}
47464 47654 {}
47465 47466 {}
47448 47449 {}
47448 47460 {}
47449 47461 {}
47460 47462 {}
47460 47654 {}
47461 47462 {}
47452 47453 {}
47452 47454 {}
47452 47457 {}
47453 47455 {}
47453 47456 {}
47458 47460 {}
47458 49750 {}
47459 47461 {}
47459 49751 {}
49750 49752 {}
49751 49752 {}
47462 47463 {}
47462 47465 {}
47654 47655 {}
47654 47675 {}
47654 47987 {}
47463 47464 {}
47466 47467 {}
47466 47468 {}
47466 47470 {}
47466 64082 {}
47467 47469 {}
47467 47471 {}
47467 64081 {}
64082 64083 {}
64081 64083 {}
64081 64097 {}
47472 47474 {}
47472 65340 {}
47473 47475 {}
47473 65341 {}
65340 65342 {}
65341 65342 {}
47476 47477 {}
47476 47479 {}
47652 47653 {}
47652 47689 {}
47652 47691 {}
47652 48005 {}
47477 47478 {}
47480 47481 {}
47480 47483 {}
47481 47482 {}
47484 47485 {}
47484 47487 {}
47604 47605 {}
47604 47698 {}
47485 47486 {}
47488 47489 {}
47488 47490 {}
47489 47491 {}
47489 66245 {}
47492 47493 {}
47492 47494 {}
47492 62377 {}
47492 63562 {}
47493 63563 {}
63562 63564 {}
63562 63574 {}
63563 63564 {}
47602 47603 {}
47496 47590 {}
47589 47591 {}
47589 47707 {}
47590 47591 {}
47517 47518 {}
47529 47530 {}
47533 47534 {}
47521 47522 {}
47531 47532 {}
47523 47524 {}
47507 47508 {}
47508 47537 {}
47537 47538 {}
47515 47516 {}
47516 47519 {}
47519 47520 {}
47518 47519 {}
47520 47527 {}
47527 47528 {}
47522 47525 {}
47525 47526 {}
47524 47525 {}
47526 47527 {}
47528 47541 {}
47541 47542 {}
47541 47585 {}
47530 47537 {}
47532 47535 {}
47535 47536 {}
47534 47535 {}
47536 47539 {}
47539 47540 {}
47538 47539 {}
47540 47541 {}
47542 47586 {}
47585 47587 {}
47585 47707 {}
47586 47587 {}
47544 47582 {}
47581 47583 {}
47581 47755 {}
47582 47583 {}
47547 47548 {}
47547 47559 {}
47548 47560 {}
47559 47561 {}
47559 47757 {}
47560 47561 {}
47551 47552 {}
47551 47553 {}
47551 47556 {}
47552 47554 {}
47552 47555 {}
47557 47559 {}
47557 49666 {}
47557 49669 {}
47558 47560 {}
47558 49667 {}
47558 49668 {}
49666 49670 {}
49669 49671 {}
49667 49670 {}
49668 49671 {}
47561 47562 {}
47561 47568 {}
47757 47758 {}
47757 47778 {}
47757 47779 {}
47757 47880 {}
47562 47567 {}
47568 47569 {}
47567 47569 {}
47567 47757 {}
47569 47570 {}
47569 47571 {}
47569 47573 {}
47569 63248 {}
47570 47572 {}
47570 47574 {}
47570 63247 {}
63248 63249 {}
63247 63249 {}
63247 63286 {}
47575 47577 {}
47575 64623 {}
47576 47578 {}
47576 64624 {}
64623 64625 {}
64624 64625 {}
47579 47580 {}
47579 47582 {}
47755 47756 {}
47755 47794 {}
47755 47796 {}
47755 47899 {}
47580 47581 {}
47583 47584 {}
47583 47586 {}
47584 47585 {}
47587 47588 {}
47587 47590 {}
47707 47708 {}
47707 47803 {}
47588 47589 {}
47591 47592 {}
47591 47593 {}
47591 47596 {}
47592 47594 {}
47592 47595 {}
47592 65861 {}
47597 47599 {}
47597 54752 {}
47597 62731 {}
47598 62732 {}
62731 62733 {}
62731 62754 {}
62732 62733 {}
47601 47602 {}
47605 47699 {}
47698 47700 {}
47698 47921 {}
47699 47700 {}
47608 47609 {}
47609 47614 {}
47614 47615 {}
47612 47613 {}
47613 47614 {}
47615 47626 {}
47626 47627 {}
47618 47619 {}
47619 47624 {}
47624 47625 {}
47622 47623 {}
47623 47624 {}
47625 47626 {}
47627 47650 {}
47650 47651 {}
47650 47694 {}
47630 47631 {}
47631 47636 {}
47636 47637 {}
47634 47635 {}
47635 47636 {}
47637 47648 {}
47648 47649 {}
47640 47641 {}
47641 47646 {}
47646 47647 {}
47644 47645 {}
47645 47646 {}
47647 47648 {}
47649 47650 {}
47651 47695 {}
47694 47696 {}
47694 47921 {}
47695 47696 {}
47653 47688 {}
47653 47690 {}
47653 48006 {}
47689 47692 {}
47691 47693 {}
48005 48007 {}
47688 47692 {}
47690 47693 {}
48006 48008 {}
47655 47674 {}
47655 47988 {}
47675 47676 {}
47987 47989 {}
47674 47676 {}
47988 47990 {}
47658 47659 {}
47658 47670 {}
47659 47671 {}
47670 47672 {}
47670 47988 {}
47670 47989 {}
47671 47672 {}
47671 47987 {}
47671 47990 {}
47662 47663 {}
47662 47664 {}
47662 47667 {}
47663 47665 {}
47663 47666 {}
47668 47670 {}
47668 49928 {}
47668 49930 {}
47669 47671 {}
47669 49929 {}
47669 49931 {}
49928 49932 {}
49930 49933 {}
49929 49932 {}
49931 49933 {}
47672 47673 {}
47672 47674 {}
47989 47991 {}
47990 47992 {}
47673 47675 {}
47676 47677 {}
47676 47678 {}
47676 47680 {}
47676 64100 {}
47677 47679 {}
47677 47681 {}
47677 64099 {}
64100 64101 {}
64100 64140 {}
64100 64143 {}
64099 64101 {}
64099 64141 {}
64099 64142 {}
47682 47684 {}
47682 65348 {}
47683 47685 {}
47683 65349 {}
65348 65350 {}
65349 65350 {}
47686 47687 {}
47686 47689 {}
47686 47690 {}
48007 48009 {}
48008 48010 {}
47687 47688 {}
47687 47691 {}
47692 47694 {}
47693 47695 {}
47696 47697 {}
47696 47699 {}
47921 47922 {}
47921 48017 {}
47697 47698 {}
47700 47701 {}
47700 47702 {}
47701 47703 {}
47701 66249 {}
47704 47705 {}
47704 47706 {}
47704 62383 {}
47704 63576 {}
47705 63577 {}
63576 63578 {}
63576 63604 {}
63576 63607 {}
63577 63578 {}
63577 63605 {}
63577 63606 {}
47812 47813 {}
47708 47804 {}
47803 47805 {}
47803 47814 {}
47804 47805 {}
47711 47712 {}
47712 47717 {}
47717 47718 {}
47715 47716 {}
47716 47717 {}
47718 47729 {}
47729 47730 {}
47721 47722 {}
47722 47727 {}
47727 47728 {}
47725 47726 {}
47726 47727 {}
47728 47729 {}
47730 47753 {}
47753 47754 {}
47753 47799 {}
47733 47734 {}
47734 47739 {}
47739 47740 {}
47737 47738 {}
47738 47739 {}
47740 47751 {}
47751 47752 {}
47743 47744 {}
47744 47749 {}
47749 47750 {}
47747 47748 {}
47748 47749 {}
47750 47751 {}
47752 47753 {}
47754 47800 {}
47799 47801 {}
47799 47814 {}
47800 47801 {}
47756 47793 {}
47756 47795 {}
47756 47898 {}
47794 47797 {}
47796 47798 {}
47899 47901 {}
47793 47797 {}
47795 47798 {}
47898 47900 {}
47758 47777 {}
47758 47780 {}
47758 47881 {}
47778 47781 {}
47779 47782 {}
47880 47882 {}
47777 47781 {}
47780 47782 {}
47881 47883 {}
47761 47762 {}
47761 47773 {}
47762 47774 {}
47773 47775 {}
47773 47881 {}
47773 47882 {}
47774 47775 {}
47774 47880 {}
47774 47883 {}
47765 47766 {}
47765 47767 {}
47765 47770 {}
47766 47768 {}
47766 47769 {}
47771 47773 {}
47771 49839 {}
47771 49841 {}
47772 47774 {}
47772 49840 {}
47772 49842 {}
49839 49843 {}
49841 49844 {}
49840 49843 {}
49842 49844 {}
47775 47776 {}
47775 47777 {}
47775 47779 {}
47882 47884 {}
47883 47885 {}
47776 47778 {}
47776 47780 {}
47781 47783 {}
47781 47785 {}
47781 63289 {}
47782 47784 {}
47782 47786 {}
47782 63288 {}
63289 63290 {}
63289 63305 {}
63289 63308 {}
63288 63290 {}
63288 63306 {}
63288 63307 {}
47787 47789 {}
47787 64631 {}
47788 47790 {}
47788 64632 {}
64631 64633 {}
64632 64633 {}
47791 47792 {}
47791 47793 {}
47791 47796 {}
47901 47902 {}
47900 47903 {}
47792 47794 {}
47792 47795 {}
47797 47800 {}
47798 47799 {}
47801 47802 {}
47801 47804 {}
47814 47815 {}
47814 47910 {}
47802 47803 {}
47805 47806 {}
47805 47807 {}
47806 47808 {}
47806 65865 {}
47809 47810 {}
47809 47811 {}
47809 54862 {}
47809 62756 {}
47810 62757 {}
62756 62758 {}
62756 62796 {}
62756 62797 {}
62757 62758 {}
62757 62795 {}
62757 62798 {}
47815 47911 {}
47910 47912 {}
47910 48031 {}
47911 47912 {}
47818 47819 {}
47819 47824 {}
47824 47825 {}
47822 47823 {}
47823 47824 {}
47825 47836 {}
47836 47837 {}
47828 47829 {}
47829 47834 {}
47834 47835 {}
47832 47833 {}
47833 47834 {}
47835 47836 {}
47837 47860 {}
47860 47861 {}
47860 47906 {}
47840 47841 {}
47841 47846 {}
47846 47847 {}
47844 47845 {}
47845 47846 {}
47847 47858 {}
47858 47859 {}
47850 47851 {}
47851 47856 {}
47856 47857 {}
47854 47855 {}
47855 47856 {}
47857 47858 {}
47859 47860 {}
47861 47907 {}
47906 47908 {}
47906 48031 {}
47907 47908 {}
47864 47865 {}
47864 47876 {}
47865 47877 {}
47876 47878 {}
47876 48081 {}
47877 47878 {}
47868 47869 {}
47868 47870 {}
47868 47873 {}
47869 47871 {}
47869 47872 {}
47874 47876 {}
47874 50015 {}
47874 50018 {}
47875 47877 {}
47875 50016 {}
47875 50017 {}
50015 50019 {}
50018 50020 {}
50016 50019 {}
50017 50020 {}
47878 47879 {}
47878 47885 {}
48081 48082 {}
48081 48104 {}
48081 48106 {}
47879 47884 {}
47885 47886 {}
47884 47886 {}
47884 48081 {}
47886 47887 {}
47886 47888 {}
47886 47890 {}
47886 63302 {}
47887 47889 {}
47887 47891 {}
47887 63301 {}
63302 63303 {}
63301 63303 {}
63301 63344 {}
47892 47894 {}
47892 64644 {}
47893 47895 {}
47893 64645 {}
64644 64646 {}
64645 64646 {}
47896 47897 {}
47896 47903 {}
48079 48080 {}
48079 48119 {}
47897 47902 {}
47903 47904 {}
47902 47904 {}
47902 48079 {}
47904 47905 {}
47904 47907 {}
47905 47906 {}
47908 47909 {}
47908 47911 {}
48031 48032 {}
48031 48127 {}
47909 47910 {}
47912 47913 {}
47912 47914 {}
47912 47917 {}
47913 47915 {}
47913 47916 {}
47913 65869 {}
47918 54972 {}
47918 62791 {}
47919 47920 {}
47919 62792 {}
62791 62793 {}
62791 62808 {}
62792 62793 {}
48028 48029 {}
47922 48018 {}
48017 48019 {}
48017 48138 {}
48018 48019 {}
47943 47944 {}
47955 47956 {}
47959 47960 {}
47947 47948 {}
47957 47958 {}
47949 47950 {}
47933 47934 {}
47934 47963 {}
47963 47964 {}
47941 47942 {}
47942 47945 {}
47945 47946 {}
47944 47945 {}
47946 47953 {}
47953 47954 {}
47948 47951 {}
47951 47952 {}
47950 47951 {}
47952 47953 {}
47954 47967 {}
47967 47968 {}
47967 48013 {}
47956 47963 {}
47958 47961 {}
47961 47962 {}
47960 47961 {}
47962 47965 {}
47965 47966 {}
47964 47965 {}
47966 47967 {}
47968 48014 {}
48013 48015 {}
48013 48138 {}
48014 48015 {}
47971 47972 {}
47971 47983 {}
47972 47984 {}
47983 47985 {}
47983 48188 {}
47984 47985 {}
47975 47976 {}
47975 47977 {}
47975 47980 {}
47976 47978 {}
47976 47979 {}
47981 47983 {}
47981 50101 {}
47982 47984 {}
47982 50102 {}
50101 50103 {}
50102 50103 {}
47985 47986 {}
47985 47992 {}
48188 48189 {}
48188 48211 {}
48188 48213 {}
47986 47991 {}
47992 47993 {}
47991 47993 {}
47991 48188 {}
47993 47994 {}
47993 47995 {}
47993 47997 {}
47993 64137 {}
47994 47996 {}
47994 47998 {}
47994 64136 {}
64137 64138 {}
64136 64138 {}
64136 64166 {}
47999 48001 {}
47999 65360 {}
48000 48002 {}
48000 65361 {}
65360 65362 {}
65361 65362 {}
48003 48004 {}
48003 48010 {}
48186 48187 {}
48186 48226 {}
48004 48009 {}
48010 48011 {}
48009 48011 {}
48009 48186 {}
48011 48012 {}
48011 48014 {}
48012 48013 {}
48015 48016 {}
48015 48018 {}
48138 48139 {}
48138 48234 {}
48016 48017 {}
48019 48020 {}
48019 48021 {}
48019 48023 {}
48020 48022 {}
48020 48024 {}
48020 66253 {}
48025 62392 {}
48025 63600 {}
48026 48027 {}
48026 63601 {}
63600 63602 {}
63600 63628 {}
63601 63602 {}
48029 48030 {}
48032 48128 {}
48127 48129 {}
48127 48328 {}
48128 48129 {}
48035 48036 {}
48036 48041 {}
48041 48042 {}
48039 48040 {}
48040 48041 {}
48042 48053 {}
48053 48054 {}
48045 48046 {}
48046 48051 {}
48051 48052 {}
48049 48050 {}
48050 48051 {}
48052 48053 {}
48054 48077 {}
48077 48078 {}
48077 48123 {}
48057 48058 {}
48058 48063 {}
48063 48064 {}
48061 48062 {}
48062 48063 {}
48064 48075 {}
48075 48076 {}
48067 48068 {}
48068 48073 {}
48073 48074 {}
48071 48072 {}
48072 48073 {}
48074 48075 {}
48076 48077 {}
48078 48124 {}
48123 48125 {}
48123 48328 {}
48124 48125 {}
48080 48120 {}
48119 48121 {}
48119 48376 {}
48120 48121 {}
48082 48103 {}
48082 48105 {}
48104 48107 {}
48106 48108 {}
48103 48107 {}
48105 48108 {}
48085 48086 {}
48085 48098 {}
48085 48100 {}
48086 48097 {}
48086 48099 {}
48098 48101 {}
48100 48102 {}
48097 48101 {}
48099 48102 {}
48089 48090 {}
48089 48091 {}
48089 48094 {}
48090 48092 {}
48090 48093 {}
48095 48097 {}
48095 48100 {}
48095 50188 {}
48095 50191 {}
48096 48098 {}
48096 48099 {}
48096 50189 {}
48096 50190 {}
50188 50192 {}
50191 50193 {}
50189 50192 {}
50190 50193 {}
48101 48103 {}
48101 48106 {}
48102 48104 {}
48102 48105 {}
48107 48109 {}
48107 48112 {}
48107 63347 {}
48107 63348 {}
48108 48110 {}
48108 48111 {}
48108 63346 {}
48108 63349 {}
63347 63350 {}
63348 63351 {}
63346 63350 {}
63349 63351 {}
48113 48115 {}
48113 64657 {}
48114 48116 {}
48114 64658 {}
64657 64659 {}
64658 64659 {}
48117 48118 {}
48117 48120 {}
48376 48377 {}
48376 48391 {}
48118 48119 {}
48121 48122 {}
48121 48124 {}
48122 48123 {}
48125 48126 {}
48125 48128 {}
48328 48329 {}
48328 48399 {}
48126 48127 {}
48129 48130 {}
48129 48131 {}
48129 48133 {}
48130 48132 {}
48130 48134 {}
48130 65873 {}
48135 55084 {}
48135 62810 {}
48136 48137 {}
48136 62811 {}
62810 62812 {}
62810 62832 {}
62811 62812 {}
48245 48246 {}
48139 48235 {}
48234 48236 {}
48234 48248 {}
48235 48236 {}
48142 48143 {}
48143 48148 {}
48148 48149 {}
48146 48147 {}
48147 48148 {}
48149 48160 {}
48160 48161 {}
48152 48153 {}
48153 48158 {}
48158 48159 {}
48156 48157 {}
48157 48158 {}
48159 48160 {}
48161 48184 {}
48184 48185 {}
48184 48230 {}
48164 48165 {}
48165 48170 {}
48170 48171 {}
48168 48169 {}
48169 48170 {}
48171 48182 {}
48182 48183 {}
48174 48175 {}
48175 48180 {}
48180 48181 {}
48178 48179 {}
48179 48180 {}
48181 48182 {}
48183 48184 {}
48185 48231 {}
48230 48232 {}
48230 48248 {}
48231 48232 {}
48187 48227 {}
48226 48228 {}
48226 48296 {}
48227 48228 {}
48189 48210 {}
48189 48212 {}
48211 48214 {}
48213 48215 {}
48210 48214 {}
48212 48215 {}
48192 48193 {}
48192 48205 {}
48192 48207 {}
48193 48204 {}
48193 48206 {}
48205 48208 {}
48207 48209 {}
48204 48208 {}
48206 48209 {}
48196 48197 {}
48196 48198 {}
48196 48201 {}
48197 48199 {}
48197 48200 {}
48202 48204 {}
48202 48207 {}
48202 50274 {}
48202 50276 {}
48203 48205 {}
48203 48206 {}
48203 50275 {}
48203 50277 {}
50274 50278 {}
50276 50279 {}
50275 50278 {}
50277 50279 {}
48208 48210 {}
48208 48213 {}
48209 48211 {}
48209 48212 {}
48214 48216 {}
48214 48219 {}
48214 64169 {}
48214 64170 {}
48215 48217 {}
48215 48218 {}
48215 64168 {}
48215 64171 {}
64169 64172 {}
64170 64173 {}
64168 64172 {}
64171 64173 {}
48220 48222 {}
48220 65370 {}
48221 48223 {}
48221 65371 {}
65370 65372 {}
65371 65372 {}
48224 48225 {}
48224 48227 {}
48296 48297 {}
48296 48311 {}
48225 48226 {}
48228 48229 {}
48228 48231 {}
48229 48230 {}
48232 48233 {}
48232 48235 {}
48248 48249 {}
48248 48319 {}
48233 48234 {}
48236 48237 {}
48236 48238 {}
48236 48241 {}
48237 48239 {}
48237 48240 {}
48237 66257 {}
48242 62398 {}
48242 63630 {}
48243 48244 {}
48243 63631 {}
63630 63632 {}
63630 63663 {}
63631 63632 {}
48246 48247 {}
48249 48320 {}
48319 48321 {}
48319 48494 {}
48320 48321 {}
48252 48253 {}
48253 48258 {}
48258 48259 {}
48256 48257 {}
48257 48258 {}
48259 48270 {}
48270 48271 {}
48262 48263 {}
48263 48268 {}
48268 48269 {}
48266 48267 {}
48267 48268 {}
48269 48270 {}
48271 48294 {}
48294 48295 {}
48294 48315 {}
48274 48275 {}
48275 48280 {}
48280 48281 {}
48278 48279 {}
48279 48280 {}
48281 48292 {}
48292 48293 {}
48284 48285 {}
48285 48290 {}
48290 48291 {}
48288 48289 {}
48289 48290 {}
48291 48292 {}
48293 48294 {}
48295 48316 {}
48315 48317 {}
48315 48494 {}
48316 48317 {}
48297 48312 {}
48311 48313 {}
48311 48542 {}
48312 48313 {}
48300 48302 {}
48300 48304 {}
48300 63369 {}
48305 48307 {}
48305 65380 {}
48306 48308 {}
48306 65381 {}
65380 65382 {}
65381 65382 {}
48309 48310 {}
48309 48312 {}
48542 48543 {}
48542 48557 {}
48542 48560 {}
48542 48724 {}
48310 48311 {}
48313 48314 {}
48313 48316 {}
48314 48315 {}
48317 48318 {}
48317 48320 {}
48494 48495 {}
48494 48567 {}
48318 48319 {}
48321 48322 {}
48321 48323 {}
48322 48324 {}
48322 66261 {}
48325 48326 {}
48325 48327 {}
48325 62404 {}
48325 63665 {}
48326 63666 {}
48410 48411 {}
48329 48400 {}
48399 48401 {}
48399 48412 {}
48400 48401 {}
48332 48333 {}
48333 48338 {}
48338 48339 {}
48336 48337 {}
48337 48338 {}
48339 48350 {}
48350 48351 {}
48342 48343 {}
48343 48348 {}
48348 48349 {}
48346 48347 {}
48347 48348 {}
48349 48350 {}
48351 48374 {}
48374 48375 {}
48374 48395 {}
48354 48355 {}
48355 48360 {}
48360 48361 {}
48358 48359 {}
48359 48360 {}
48361 48372 {}
48372 48373 {}
48364 48365 {}
48365 48370 {}
48370 48371 {}
48368 48369 {}
48369 48370 {}
48371 48372 {}
48373 48374 {}
48375 48396 {}
48395 48397 {}
48395 48412 {}
48396 48397 {}
48377 48392 {}
48391 48393 {}
48391 48460 {}
48392 48393 {}
48380 48382 {}
48380 48384 {}
48380 62544 {}
48385 48387 {}
48385 64670 {}
48386 48388 {}
48386 64671 {}
64670 64672 {}
64671 64672 {}
48389 48390 {}
48389 48392 {}
48460 48461 {}
48460 48475 {}
48460 48478 {}
48460 48640 {}
48390 48391 {}
48393 48394 {}
48393 48396 {}
48394 48395 {}
48397 48398 {}
48397 48400 {}
48412 48413 {}
48412 48485 {}
48398 48399 {}
48401 48402 {}
48401 48403 {}
48401 48405 {}
48402 48404 {}
48402 48406 {}
48402 65877 {}
48407 48409 {}
48407 55196 {}
48407 62834 {}
48408 62835 {}
48413 48486 {}
48485 48487 {}
48485 48578 {}
48486 48487 {}
48416 48417 {}
48417 48422 {}
48422 48423 {}
48420 48421 {}
48421 48422 {}
48423 48434 {}
48434 48435 {}
48426 48427 {}
48427 48432 {}
48432 48433 {}
48430 48431 {}
48431 48432 {}
48433 48434 {}
48435 48458 {}
48458 48459 {}
48458 48481 {}
48438 48439 {}
48439 48444 {}
48444 48445 {}
48442 48443 {}
48443 48444 {}
48445 48456 {}
48456 48457 {}
48448 48449 {}
48449 48454 {}
48454 48455 {}
48452 48453 {}
48453 48454 {}
48455 48456 {}
48457 48458 {}
48459 48482 {}
48481 48483 {}
48481 48578 {}
48482 48483 {}
48461 48476 {}
48461 48477 {}
48461 48639 {}
48475 48479 {}
48478 48480 {}
48640 48642 {}
48476 48479 {}
48477 48480 {}
48639 48641 {}
48464 48466 {}
48464 48468 {}
48464 62567 {}
48469 48471 {}
48469 64688 {}
48470 48472 {}
48470 64689 {}
64688 64690 {}
64689 64690 {}
48473 48474 {}
48473 48475 {}
48473 48477 {}
48642 48643 {}
48641 48644 {}
48474 48476 {}
48474 48478 {}
48479 48481 {}
48480 48482 {}
48483 48484 {}
48483 48486 {}
48578 48579 {}
48578 48651 {}
48484 48485 {}
48487 48488 {}
48487 48489 {}
48488 48490 {}
48488 65881 {}
48491 48492 {}
48491 48493 {}
48491 55283 {}
48491 62870 {}
48492 62871 {}
48576 48577 {}
48495 48568 {}
48567 48569 {}
48567 48662 {}
48568 48569 {}
48526 48527 {}
48532 48533 {}
48514 48515 {}
48516 48517 {}
48502 48503 {}
48503 48536 {}
48536 48537 {}
48522 48523 {}
48520 48521 {}
48518 48519 {}
48515 48524 {}
48524 48525 {}
48517 48534 {}
48534 48535 {}
48519 48536 {}
48521 48528 {}
48528 48529 {}
48523 48524 {}
48525 48530 {}
48530 48531 {}
48527 48528 {}
48529 48530 {}
48531 48540 {}
48540 48541 {}
48540 48563 {}
48533 48534 {}
48535 48538 {}
48538 48539 {}
48537 48538 {}
48539 48540 {}
48541 48564 {}
48563 48565 {}
48563 48662 {}
48564 48565 {}
48543 48558 {}
48543 48559 {}
48543 48723 {}
48557 48561 {}
48560 48562 {}
48724 48726 {}
48558 48561 {}
48559 48562 {}
48723 48725 {}
48546 48548 {}
48546 48550 {}
48546 63377 {}
48551 48553 {}
48551 65390 {}
48552 48554 {}
48552 65391 {}
65390 65392 {}
65391 65392 {}
48555 48556 {}
48555 48557 {}
48555 48559 {}
48726 48727 {}
48725 48728 {}
48556 48558 {}
48556 48560 {}
48561 48563 {}
48562 48564 {}
48565 48566 {}
48565 48568 {}
48662 48663 {}
48662 48735 {}
48566 48567 {}
48569 48570 {}
48569 48571 {}
48570 48572 {}
48570 66265 {}
48573 48574 {}
48573 48575 {}
48573 62412 {}
48573 63679 {}
48574 63680 {}
48579 48652 {}
48651 48653 {}
48651 48831 {}
48652 48653 {}
48582 48583 {}
48583 48588 {}
48588 48589 {}
48586 48587 {}
48587 48588 {}
48589 48600 {}
48600 48601 {}
48592 48593 {}
48593 48598 {}
48598 48599 {}
48596 48597 {}
48597 48598 {}
48599 48600 {}
48601 48624 {}
48624 48625 {}
48624 48647 {}
48604 48605 {}
48605 48610 {}
48610 48611 {}
48608 48609 {}
48609 48610 {}
48611 48622 {}
48622 48623 {}
48614 48615 {}
48615 48620 {}
48620 48621 {}
48618 48619 {}
48619 48620 {}
48621 48622 {}
48623 48624 {}
48625 48648 {}
48647 48649 {}
48647 48831 {}
48648 48649 {}
48628 48630 {}
48628 48632 {}
48628 62582 {}
48633 48635 {}
48633 64696 {}
48634 48636 {}
48634 64697 {}
64696 64698 {}
64697 64698 {}
48637 48638 {}
48637 48644 {}
48879 48880 {}
48879 48894 {}
48879 48897 {}
48879 48981 {}
48638 48643 {}
48644 48645 {}
48643 48645 {}
48643 48879 {}
48645 48646 {}
48645 48648 {}
48646 48647 {}
48649 48650 {}
48649 48652 {}
48831 48832 {}
48831 48904 {}
48650 48651 {}
48653 48654 {}
48653 48655 {}
48653 48657 {}
48654 48656 {}
48654 48658 {}
48654 65885 {}
48659 55370 {}
48659 62883 {}
48660 48661 {}
48660 62884 {}
48746 48747 {}
48663 48736 {}
48735 48737 {}
48735 48749 {}
48736 48737 {}
48666 48667 {}
48667 48672 {}
48672 48673 {}
48670 48671 {}
48671 48672 {}
48673 48684 {}
48684 48685 {}
48676 48677 {}
48677 48682 {}
48682 48683 {}
48680 48681 {}
48681 48682 {}
48683 48684 {}
48685 48708 {}
48708 48709 {}
48708 48731 {}
48688 48689 {}
48689 48694 {}
48694 48695 {}
48692 48693 {}
48693 48694 {}
48695 48706 {}
48706 48707 {}
48698 48699 {}
48699 48704 {}
48704 48705 {}
48702 48703 {}
48703 48704 {}
48705 48706 {}
48707 48708 {}
48709 48732 {}
48731 48733 {}
48731 48749 {}
48732 48733 {}
48712 48714 {}
48712 48716 {}
48712 63412 {}
48717 48719 {}
48717 65400 {}
48718 48720 {}
48718 65401 {}
65400 65402 {}
65401 65402 {}
48721 48722 {}
48721 48728 {}
48797 48798 {}
48797 48812 {}
48797 48815 {}
48797 49065 {}
48722 48727 {}
48728 48729 {}
48727 48729 {}
48727 48797 {}
48729 48730 {}
48729 48732 {}
48730 48731 {}
48733 48734 {}
48733 48736 {}
48749 48750 {}
48749 48822 {}
48734 48735 {}
48737 48738 {}
48737 48739 {}
48737 48741 {}
48738 48740 {}
48738 48742 {}
48738 66269 {}
48743 62418 {}
48743 63703 {}
48744 48745 {}
48744 63704 {}
48747 48748 {}
48750 48823 {}
48822 48824 {}
48822 49003 {}
48823 48824 {}
48753 48754 {}
48754 48759 {}
48759 48760 {}
48757 48758 {}
48758 48759 {}
48760 48771 {}
48771 48772 {}
48763 48764 {}
48764 48769 {}
48769 48770 {}
48767 48768 {}
48768 48769 {}
48770 48771 {}
48772 48795 {}
48795 48796 {}
48795 48818 {}
48775 48776 {}
48776 48781 {}
48781 48782 {}
48779 48780 {}
48780 48781 {}
48782 48793 {}
48793 48794 {}
48785 48786 {}
48786 48791 {}
48791 48792 {}
48789 48790 {}
48790 48791 {}
48792 48793 {}
48794 48795 {}
48796 48819 {}
48818 48820 {}
48818 49003 {}
48819 48820 {}
48798 48813 {}
48798 48814 {}
48798 49064 {}
48812 48816 {}
48815 48817 {}
49065 49067 {}
48813 48816 {}
48814 48817 {}
49064 49066 {}
48801 48803 {}
48801 48805 {}
48801 63425 {}
48806 48808 {}
48806 65410 {}
48807 48809 {}
48807 65411 {}
65410 65412 {}
65411 65412 {}
48810 48811 {}
48810 48812 {}
48810 48814 {}
49067 49068 {}
49066 49069 {}
48811 48813 {}
48811 48815 {}
48816 48818 {}
48817 48819 {}
48820 48821 {}
48820 48823 {}
49003 49004 {}
49003 49076 {}
48821 48822 {}
48824 48825 {}
48824 48826 {}
48825 48827 {}
48825 66273 {}
48828 48829 {}
48828 48830 {}
48828 62427 {}
48828 63746 {}
48829 63747 {}
48917 48918 {}
48832 48905 {}
48904 48906 {}
48904 48919 {}
48905 48906 {}
48835 48836 {}
48836 48841 {}
48841 48842 {}
48839 48840 {}
48840 48841 {}
48842 48853 {}
48853 48854 {}
48845 48846 {}
48846 48851 {}
48851 48852 {}
48849 48850 {}
48850 48851 {}
48852 48853 {}
48854 48877 {}
48877 48878 {}
48877 48900 {}
48857 48858 {}
48858 48863 {}
48863 48864 {}
48861 48862 {}
48862 48863 {}
48864 48875 {}
48875 48876 {}
48867 48868 {}
48868 48873 {}
48873 48874 {}
48871 48872 {}
48872 48873 {}
48874 48875 {}
48876 48877 {}
48878 48901 {}
48900 48902 {}
48900 48919 {}
48901 48902 {}
48880 48895 {}
48880 48896 {}
48880 48980 {}
48894 48898 {}
48897 48899 {}
48981 48983 {}
48895 48898 {}
48896 48899 {}
48980 48982 {}
48883 48885 {}
48883 48887 {}
48883 62606 {}
48888 48890 {}
48888 64709 {}
48889 48891 {}
48889 64710 {}
64709 64711 {}
64710 64711 {}
48892 48893 {}
48892 48894 {}
48892 48896 {}
48983 48984 {}
48982 48985 {}
48893 48895 {}
48893 48897 {}
48898 48900 {}
48899 48901 {}
48902 48903 {}
48902 48905 {}
48919 48920 {}
48919 48992 {}
48903 48904 {}
48906 48907 {}
48906 48908 {}
48906 48910 {}
48907 48909 {}
48907 48911 {}
48907 65889 {}
48912 48914 {}
48912 55459 {}
48912 62925 {}
48913 62926 {}
48916 48917 {}
48920 48993 {}
48992 48994 {}
48992 49087 {}
48993 48994 {}
48923 48924 {}
48924 48929 {}
48929 48930 {}
48927 48928 {}
48928 48929 {}
48930 48941 {}
48941 48942 {}
48933 48934 {}
48934 48939 {}
48939 48940 {}
48937 48938 {}
48938 48939 {}
48940 48941 {}
48942 48965 {}
48965 48966 {}
48965 48988 {}
48945 48946 {}
48946 48951 {}
48951 48952 {}
48949 48950 {}
48950 48951 {}
48952 48963 {}
48963 48964 {}
48955 48956 {}
48956 48961 {}
48961 48962 {}
48959 48960 {}
48960 48961 {}
48962 48963 {}
48964 48965 {}
48966 48989 {}
48988 48990 {}
48988 49087 {}
48989 48990 {}
48969 48971 {}
48969 48973 {}
48969 62642 {}
48974 48976 {}
48974 64722 {}
48975 48977 {}
48975 64723 {}
64722 64724 {}
64723 64724 {}
48978 48979 {}
48978 48985 {}
49135 49136 {}
49135 49150 {}
49135 49153 {}
49135 49397 {}
48979 48984 {}
48985 48986 {}
48984 48986 {}
48984 49135 {}
48986 48987 {}
48986 48989 {}
48987 48988 {}
48990 48991 {}
48990 48993 {}
49087 49088 {}
49087 49160 {}
48991 48992 {}
48994 48995 {}
48994 48996 {}
48994 48999 {}
48995 48997 {}
48995 48998 {}
48995 65893 {}
49000 49002 {}
49000 55632 {}
49000 62940 {}
49001 62941 {}
49085 49086 {}
49004 49077 {}
49076 49078 {}
49076 49169 {}
49077 49078 {}
49007 49008 {}
49008 49013 {}
49013 49014 {}
49011 49012 {}
49012 49013 {}
49014 49025 {}
49025 49026 {}
49017 49018 {}
49018 49023 {}
49023 49024 {}
49021 49022 {}
49022 49023 {}
49024 49025 {}
49026 49049 {}
49049 49050 {}
49049 49072 {}
49029 49030 {}
49030 49035 {}
49035 49036 {}
49033 49034 {}
49034 49035 {}
49036 49047 {}
49047 49048 {}
49039 49040 {}
49040 49045 {}
49045 49046 {}
49043 49044 {}
49044 49045 {}
49046 49047 {}
49048 49049 {}
49050 49073 {}
49072 49074 {}
49072 49169 {}
49073 49074 {}
49053 49055 {}
49053 49057 {}
49053 63449 {}
49058 49060 {}
49058 65418 {}
49059 49061 {}
49059 65419 {}
65418 65420 {}
65419 65420 {}
49062 49063 {}
49062 49069 {}
49217 49218 {}
49217 49232 {}
49217 49235 {}
49217 49315 {}
49063 49068 {}
49069 49070 {}
49068 49070 {}
49068 49217 {}
49070 49071 {}
49070 49073 {}
49071 49072 {}
49074 49075 {}
49074 49077 {}
49169 49170 {}
49169 49242 {}
49075 49076 {}
49078 49079 {}
49078 49080 {}
49079 49081 {}
49079 66277 {}
49082 49083 {}
49082 49084 {}
49082 62432 {}
49082 63771 {}
49083 63772 {}
49088 49161 {}
49160 49162 {}
49160 49335 {}
49161 49162 {}
49091 49092 {}
49092 49097 {}
49097 49098 {}
49095 49096 {}
49096 49097 {}
49098 49109 {}
49109 49110 {}
49101 49102 {}
49102 49107 {}
49107 49108 {}
49105 49106 {}
49106 49107 {}
49108 49109 {}
49110 49133 {}
49133 49134 {}
49133 49156 {}
49113 49114 {}
49114 49119 {}
49119 49120 {}
49117 49118 {}
49118 49119 {}
49120 49131 {}
49131 49132 {}
49123 49124 {}
49124 49129 {}
49129 49130 {}
49127 49128 {}
49128 49129 {}
49130 49131 {}
49132 49133 {}
49134 49157 {}
49156 49158 {}
49156 49335 {}
49157 49158 {}
49136 49151 {}
49136 49152 {}
49136 49396 {}
49150 49154 {}
49153 49155 {}
49397 49399 {}
49151 49154 {}
49152 49155 {}
49396 49398 {}
49139 49141 {}
49139 49143 {}
49139 62668 {}
49144 49146 {}
49144 64741 {}
49145 49147 {}
49145 64740 {}
64741 64742 {}
64740 64742 {}
49148 49149 {}
49148 49150 {}
49148 49152 {}
49399 49400 {}
49398 49401 {}
49149 49151 {}
49149 49153 {}
49154 49156 {}
49155 49157 {}
49158 49159 {}
49158 49161 {}
49335 49336 {}
49335 49408 {}
49159 49160 {}
49162 49163 {}
49162 49164 {}
49163 49165 {}
49163 65897 {}
49166 49167 {}
49166 49168 {}
49166 55637 {}
49166 62965 {}
49167 62966 {}
49251 49252 {}
49170 49243 {}
49242 49244 {}
49242 49253 {}
49243 49244 {}
49173 49174 {}
49174 49179 {}
49179 49180 {}
49177 49178 {}
49178 49179 {}
49180 49191 {}
49191 49192 {}
49183 49184 {}
49184 49189 {}
49189 49190 {}
49187 49188 {}
49188 49189 {}
49190 49191 {}
49192 49215 {}
49215 49216 {}
49215 49238 {}
49195 49196 {}
49196 49201 {}
49201 49202 {}
49199 49200 {}
49200 49201 {}
49202 49213 {}
49213 49214 {}
49205 49206 {}
49206 49211 {}
49211 49212 {}
49209 49210 {}
49210 49211 {}
49212 49213 {}
49214 49215 {}
49216 49239 {}
49238 49240 {}
49238 49253 {}
49239 49240 {}
49218 49233 {}
49218 49234 {}
49218 49314 {}
49232 49236 {}
49235 49237 {}
49315 49317 {}
49233 49236 {}
49234 49237 {}
49314 49316 {}
49221 49223 {}
49221 49225 {}
49221 63475 {}
49226 49228 {}
49226 65430 {}
49227 49229 {}
49227 65431 {}
65430 65432 {}
65431 65432 {}
49230 49231 {}
49230 49232 {}
49230 49234 {}
49317 49318 {}
49316 49319 {}
49231 49233 {}
49231 49235 {}
49236 49238 {}
49237 49239 {}
49240 49241 {}
49240 49243 {}
49253 49254 {}
49253 49326 {}
49241 49242 {}
49244 49245 {}
49244 49246 {}
49245 49247 {}
49245 66281 {}
49248 49249 {}
49248 49250 {}
49248 62439 {}
49248 63784 {}
49249 63785 {}
49254 49327 {}
49326 49328 {}
49326 49421 {}
49327 49328 {}
49257 49258 {}
49258 49263 {}
49263 49264 {}
49261 49262 {}
49262 49263 {}
49264 49275 {}
49275 49276 {}
49267 49268 {}
49268 49273 {}
49273 49274 {}
49271 49272 {}
49272 49273 {}
49274 49275 {}
49276 49299 {}
49299 49300 {}
49299 49322 {}
49279 49280 {}
49280 49285 {}
49285 49286 {}
49283 49284 {}
49284 49285 {}
49286 49297 {}
49297 49298 {}
49289 49290 {}
49290 49295 {}
49295 49296 {}
49293 49294 {}
49294 49295 {}
49296 49297 {}
49298 49299 {}
49300 49323 {}
49322 49324 {}
49322 49421 {}
49323 49324 {}
49303 49305 {}
49303 49307 {}
49303 63501 {}
49308 49310 {}
49308 65440 {}
49309 49311 {}
49309 65441 {}
65440 65442 {}
65441 65442 {}
49312 49313 {}
49312 49319 {}
49469 49470 {}
49469 49484 {}
49469 49487 {}
49469 49735 {}
49313 49318 {}
49319 49320 {}
49318 49320 {}
49318 49469 {}
49320 49321 {}
49320 49323 {}
49321 49322 {}
49324 49325 {}
49324 49327 {}
49421 49422 {}
49421 49494 {}
49325 49326 {}
49328 49329 {}
49328 49330 {}
49329 49331 {}
49329 66285 {}
49332 49333 {}
49332 49334 {}
49332 62448 {}
49332 63821 {}
49333 63822 {}
49419 49420 {}
49336 49409 {}
49408 49410 {}
49408 49503 {}
49409 49410 {}
49339 49340 {}
49340 49345 {}
49345 49346 {}
49343 49344 {}
49344 49345 {}
49346 49357 {}
49357 49358 {}
49349 49350 {}
49350 49355 {}
49355 49356 {}
49353 49354 {}
49354 49355 {}
49356 49357 {}
49358 49381 {}
49381 49382 {}
49381 49404 {}
49361 49362 {}
49362 49367 {}
49367 49368 {}
49365 49366 {}
49366 49367 {}
49368 49379 {}
49379 49380 {}
49371 49372 {}
49372 49377 {}
49377 49378 {}
49375 49376 {}
49376 49377 {}
49378 49379 {}
49380 49381 {}
49382 49405 {}
49404 49406 {}
49404 49503 {}
49405 49406 {}
49385 49387 {}
49385 49389 {}
49385 62683 {}
49390 49392 {}
49390 64754 {}
49391 49393 {}
49391 64753 {}
64754 64755 {}
64753 64755 {}
49394 49395 {}
49394 49401 {}
49551 49552 {}
49551 49566 {}
49551 49569 {}
49551 49651 {}
49395 49400 {}
49401 49402 {}
49400 49402 {}
49400 49551 {}
49402 49403 {}
49402 49405 {}
49403 49404 {}
49406 49407 {}
49406 49409 {}
49503 49504 {}
49503 49576 {}
49407 49408 {}
49410 49411 {}
49410 49412 {}
49410 49414 {}
49411 49413 {}
49411 49415 {}
49411 65901 {}
49416 49418 {}
49416 55724 {}
49416 63001 {}
49417 63002 {}
49422 49495 {}
49494 49496 {}
49494 49673 {}
49495 49496 {}
49441 49442 {}
49461 49462 {}
49449 49450 {}
49453 49454 {}
49429 49430 {}
49430 49445 {}
49445 49446 {}
49447 49448 {}
49443 49444 {}
49457 49458 {}
49442 49459 {}
49459 49460 {}
49444 49445 {}
49446 49455 {}
49455 49456 {}
49448 49451 {}
49451 49452 {}
49450 49451 {}
49452 49455 {}
49454 49463 {}
49463 49464 {}
49456 49467 {}
49467 49468 {}
49467 49490 {}
49458 49459 {}
49460 49465 {}
49465 49466 {}
49462 49463 {}
49464 49465 {}
49466 49467 {}
49468 49491 {}
49490 49492 {}
49490 49673 {}
49491 49492 {}
49470 49485 {}
49470 49486 {}
49470 49734 {}
49484 49488 {}
49487 49489 {}
49735 49737 {}
49485 49488 {}
49486 49489 {}
49734 49736 {}
49473 49475 {}
49473 49477 {}
49473 63538 {}
49478 49480 {}
49478 65451 {}
49479 49481 {}
49479 65450 {}
65451 65452 {}
65450 65452 {}
49482 49483 {}
49482 49484 {}
49482 49486 {}
49737 49738 {}
49736 49739 {}
49483 49485 {}
49483 49487 {}
49488 49490 {}
49489 49491 {}
49492 49493 {}
49492 49495 {}
49673 49674 {}
49673 49746 {}
49493 49494 {}
49496 49497 {}
49496 49498 {}
49497 49499 {}
49497 66289 {}
49500 49501 {}
49500 49502 {}
49500 62454 {}
49500 63850 {}
49501 63851 {}
49587 49588 {}
49504 49577 {}
49576 49578 {}
49576 49589 {}
49577 49578 {}
49507 49508 {}
49508 49513 {}
49513 49514 {}
49511 49512 {}
49512 49513 {}
49514 49525 {}
49525 49526 {}
49517 49518 {}
49518 49523 {}
49523 49524 {}
49521 49522 {}
49522 49523 {}
49524 49525 {}
49526 49549 {}
49549 49550 {}
49549 49572 {}
49529 49530 {}
49530 49535 {}
49535 49536 {}
49533 49534 {}
49534 49535 {}
49536 49547 {}
49547 49548 {}
49539 49540 {}
49540 49545 {}
49545 49546 {}
49543 49544 {}
49544 49545 {}
49546 49547 {}
49548 49549 {}
49550 49573 {}
49572 49574 {}
49572 49589 {}
49573 49574 {}
49552 49567 {}
49552 49568 {}
49552 49650 {}
49566 49570 {}
49569 49571 {}
49651 49653 {}
49567 49570 {}
49568 49571 {}
49650 49652 {}
49555 49557 {}
49555 49559 {}
49555 62718 {}
49560 49562 {}
49560 64761 {}
49561 49563 {}
49561 64762 {}
64761 64763 {}
64762 64763 {}
49564 49565 {}
49564 49566 {}
49564 49568 {}
49653 49654 {}
49652 49655 {}
49565 49567 {}
49565 49569 {}
49570 49572 {}
49571 49573 {}
49574 49575 {}
49574 49577 {}
49589 49590 {}
49589 49662 {}
49575 49576 {}
49578 49579 {}
49578 49580 {}
49578 49582 {}
49579 49581 {}
49579 49583 {}
49579 65905 {}
49584 49586 {}
49584 55813 {}
49584 63020 {}
49585 63021 {}
49590 49663 {}
49662 49664 {}
49662 49757 {}
49663 49664 {}
49593 49594 {}
49594 49599 {}
49599 49600 {}
49597 49598 {}
49598 49599 {}
49600 49611 {}
49611 49612 {}
49603 49604 {}
49604 49609 {}
49609 49610 {}
49607 49608 {}
49608 49609 {}
49610 49611 {}
49612 49635 {}
49635 49636 {}
49635 49658 {}
49615 49616 {}
49616 49621 {}
49621 49622 {}
49619 49620 {}
49620 49621 {}
49622 49633 {}
49633 49634 {}
49625 49626 {}
49626 49631 {}
49631 49632 {}
49629 49630 {}
49630 49631 {}
49632 49633 {}
49634 49635 {}
49636 49659 {}
49658 49660 {}
49658 49757 {}
49659 49660 {}
49639 49641 {}
49639 49643 {}
49639 62731 {}
49644 49646 {}
49644 64775 {}
49645 49647 {}
49645 64776 {}
64775 64777 {}
64776 64777 {}
49648 49649 {}
49648 49655 {}
49805 49806 {}
49805 49825 {}
49805 49828 {}
49805 49999 {}
49649 49654 {}
49655 49656 {}
49654 49656 {}
49654 49805 {}
49656 49657 {}
49656 49659 {}
49657 49658 {}
49660 49661 {}
49660 49663 {}
49757 49758 {}
49757 49835 {}
49661 49662 {}
49664 49665 {}
49664 49666 {}
49664 49668 {}
49665 49667 {}
49665 49669 {}
49665 65909 {}
49670 49672 {}
49670 55902 {}
49670 63045 {}
49671 63046 {}
49755 49756 {}
49674 49747 {}
49746 49748 {}
49746 49846 {}
49747 49748 {}
49677 49678 {}
49678 49683 {}
49683 49684 {}
49681 49682 {}
49682 49683 {}
49684 49695 {}
49695 49696 {}
49687 49688 {}
49688 49693 {}
49693 49694 {}
49691 49692 {}
49692 49693 {}
49694 49695 {}
49696 49719 {}
49719 49720 {}
49719 49742 {}
49699 49700 {}
49700 49705 {}
49705 49706 {}
49703 49704 {}
49704 49705 {}
49706 49717 {}
49717 49718 {}
49709 49710 {}
49710 49715 {}
49715 49716 {}
49713 49714 {}
49714 49715 {}
49716 49717 {}
49718 49719 {}
49720 49743 {}
49742 49744 {}
49742 49846 {}
49743 49744 {}
49723 49725 {}
49723 49727 {}
49723 63562 {}
49728 49730 {}
49728 65458 {}
49729 49731 {}
49729 65459 {}
65458 65460 {}
65459 65460 {}
49732 49733 {}
49732 49739 {}
49894 49895 {}
49894 49914 {}
49894 49917 {}
49894 50082 {}
49733 49738 {}
49739 49740 {}
49738 49740 {}
49738 49894 {}
49740 49741 {}
49740 49743 {}
49741 49742 {}
49744 49745 {}
49744 49747 {}
49846 49847 {}
49846 49924 {}
49846 50093 {}
49745 49746 {}
49748 49749 {}
49748 49750 {}
49749 49751 {}
49749 66293 {}
49752 49753 {}
49752 49754 {}
49752 62462 {}
49752 63875 {}
49753 63876 {}
49758 49836 {}
49835 49837 {}
49835 49938 {}
49836 49837 {}
49761 49762 {}
49762 49767 {}
49767 49768 {}
49765 49766 {}
49766 49767 {}
49768 49779 {}
49779 49780 {}
49771 49772 {}
49772 49777 {}
49777 49778 {}
49775 49776 {}
49776 49777 {}
49778 49779 {}
49780 49803 {}
49803 49804 {}
49803 49831 {}
49783 49784 {}
49784 49789 {}
49789 49790 {}
49787 49788 {}
49788 49789 {}
49790 49801 {}
49801 49802 {}
49793 49794 {}
49794 49799 {}
49799 49800 {}
49797 49798 {}
49798 49799 {}
49800 49801 {}
49802 49803 {}
49804 49832 {}
49831 49833 {}
49831 49938 {}
49832 49833 {}
49806 49826 {}
49806 49827 {}
49806 50000 {}
49825 49829 {}
49828 49830 {}
49999 50001 {}
49826 49829 {}
49827 49830 {}
50000 50002 {}
49808 49810 {}
49808 49811 {}
49813 49815 {}
49813 49817 {}
49813 62757 {}
49814 49816 {}
49814 49818 {}
49814 62756 {}
49819 49821 {}
49819 64788 {}
49820 49822 {}
49820 64789 {}
64788 64790 {}
64789 64790 {}
49823 49824 {}
49823 49825 {}
49823 49827 {}
50001 50003 {}
50002 50004 {}
49824 49826 {}
49824 49828 {}
49829 49831 {}
49830 49832 {}
49833 49834 {}
49833 49836 {}
49938 49939 {}
49938 50011 {}
49834 49835 {}
49837 49838 {}
49837 49839 {}
49837 49842 {}
49838 49840 {}
49838 49841 {}
49838 65913 {}
49843 55991 {}
49843 63080 {}
49844 49845 {}
49844 63081 {}
49935 49936 {}
49847 49925 {}
49847 50094 {}
49924 49926 {}
50093 50095 {}
49925 49926 {}
50094 50096 {}
49850 49851 {}
49851 49856 {}
49856 49857 {}
49854 49855 {}
49855 49856 {}
49857 49868 {}
49868 49869 {}
49860 49861 {}
49861 49866 {}
49866 49867 {}
49864 49865 {}
49865 49866 {}
49867 49868 {}
49869 49892 {}
49892 49893 {}
49892 49920 {}
49872 49873 {}
49873 49878 {}
49878 49879 {}
49876 49877 {}
49877 49878 {}
49879 49890 {}
49890 49891 {}
49882 49883 {}
49883 49888 {}
49888 49889 {}
49886 49887 {}
49887 49888 {}
49889 49890 {}
49891 49892 {}
49893 49921 {}
49920 49922 {}
49920 50094 {}
49920 50095 {}
49921 49922 {}
49921 50093 {}
49921 50096 {}
49895 49915 {}
49895 49916 {}
49895 50081 {}
49914 49918 {}
49917 49919 {}
50082 50084 {}
49915 49918 {}
49916 49919 {}
50081 50083 {}
49897 49899 {}
49897 49900 {}
49902 49904 {}
49902 49906 {}
49902 63577 {}
49903 49905 {}
49903 49907 {}
49903 63576 {}
49908 49910 {}
49908 65468 {}
49909 49911 {}
49909 65469 {}
65468 65470 {}
65469 65470 {}
49912 49913 {}
49912 49914 {}
49912 49916 {}
50084 50085 {}
50083 50086 {}
49913 49915 {}
49913 49917 {}
49918 49920 {}
49919 49921 {}
49922 49923 {}
49922 49924 {}
50095 50097 {}
50096 50098 {}
49923 49925 {}
49926 49927 {}
49926 49929 {}
49926 49930 {}
49926 66297 {}
49927 49928 {}
49927 49931 {}
49932 62468 {}
49932 63888 {}
49933 49934 {}
49933 63889 {}
49936 49937 {}
49939 50012 {}
50011 50013 {}
50011 50109 {}
50012 50013 {}
49942 49943 {}
49943 49948 {}
49948 49949 {}
49946 49947 {}
49947 49948 {}
49949 49960 {}
49960 49961 {}
49952 49953 {}
49953 49958 {}
49958 49959 {}
49956 49957 {}
49957 49958 {}
49959 49960 {}
49961 49984 {}
49984 49985 {}
49984 50007 {}
49964 49965 {}
49965 49970 {}
49970 49971 {}
49968 49969 {}
49969 49970 {}
49971 49982 {}
49982 49983 {}
49974 49975 {}
49975 49980 {}
49980 49981 {}
49978 49979 {}
49979 49980 {}
49981 49982 {}
49983 49984 {}
49985 50008 {}
50007 50009 {}
50007 50109 {}
50008 50009 {}
49988 49990 {}
49988 49992 {}
49988 62791 {}
49993 49995 {}
49993 64801 {}
49994 49996 {}
49994 64802 {}
64801 64803 {}
64802 64803 {}
49997 49998 {}
49997 50004 {}
50111 50112 {}
50111 50179 {}
50111 50181 {}
49998 50003 {}
50004 50005 {}
50003 50005 {}
50003 50111 {}
50005 50006 {}
50005 50008 {}
50006 50007 {}
50009 50010 {}
50009 50012 {}
50109 50110 {}
50109 50184 {}
50010 50011 {}
50013 50014 {}
50013 50015 {}
50013 50017 {}
50014 50016 {}
50014 50018 {}
50014 65917 {}
50019 56083 {}
50019 63104 {}
50020 50021 {}
50020 63105 {}
50106 50107 {}
50024 50025 {}
50025 50030 {}
50030 50031 {}
50028 50029 {}
50029 50030 {}
50031 50042 {}
50042 50043 {}
50034 50035 {}
50035 50040 {}
50040 50041 {}
50038 50039 {}
50039 50040 {}
50041 50042 {}
50043 50066 {}
50066 50067 {}
50066 50089 {}
50046 50047 {}
50047 50052 {}
50052 50053 {}
50050 50051 {}
50051 50052 {}
50053 50064 {}
50064 50065 {}
50056 50057 {}
50057 50062 {}
50062 50063 {}
50060 50061 {}
50061 50062 {}
50063 50064 {}
50065 50066 {}
50067 50090 {}
50089 50091 {}
50089 50195 {}
50090 50091 {}
50070 50072 {}
50070 50074 {}
50070 63600 {}
50075 50077 {}
50075 65480 {}
50076 50078 {}
50076 65481 {}
65480 65482 {}
65481 65482 {}
50079 50080 {}
50079 50086 {}
50197 50198 {}
50197 50265 {}
50197 50267 {}
50080 50085 {}
50086 50087 {}
50085 50087 {}
50085 50197 {}
50087 50088 {}
50087 50090 {}
50088 50089 {}
50091 50092 {}
50091 50098 {}
50195 50196 {}
50195 50271 {}
50092 50097 {}
50098 50099 {}
50097 50099 {}
50097 50195 {}
50099 50100 {}
50099 50102 {}
50100 50101 {}
50100 66301 {}
50103 50104 {}
50103 50105 {}
50103 63913 {}
50104 62474 {}
50104 63912 {}
50107 50108 {}
50110 50185 {}
50184 50186 {}
50185 50186 {}
50112 50178 {}
50112 50180 {}
50179 50182 {}
50181 50183 {}
50178 50182 {}
50180 50183 {}
50115 50116 {}
50116 50121 {}
50121 50122 {}
50119 50120 {}
50120 50121 {}
50122 50133 {}
50133 50134 {}
50125 50126 {}
50126 50131 {}
50131 50132 {}
50129 50130 {}
50130 50131 {}
50132 50133 {}
50134 50157 {}
50157 50158 {}
50157 50172 {}
50157 50174 {}
50137 50138 {}
50138 50143 {}
50143 50144 {}
50141 50142 {}
50142 50143 {}
50144 50155 {}
50155 50156 {}
50147 50148 {}
50148 50153 {}
50153 50154 {}
50151 50152 {}
50152 50153 {}
50154 50155 {}
50156 50157 {}
50158 50173 {}
50158 50175 {}
50172 50176 {}
50174 50177 {}
50173 50176 {}
50175 50177 {}
50161 50163 {}
50161 50165 {}
50161 62810 {}
50166 50168 {}
50166 64816 {}
50167 50169 {}
50167 64817 {}
64816 64818 {}
64817 64818 {}
50170 50171 {}
50170 50172 {}
50170 50175 {}
50171 50173 {}
50171 50174 {}
50176 50178 {}
50176 50181 {}
50177 50179 {}
50177 50180 {}
50182 50185 {}
50183 50184 {}
50186 50187 {}
50186 50189 {}
50186 50191 {}
50186 65921 {}
50187 50188 {}
50187 50190 {}
50192 56172 {}
50192 63134 {}
50193 50194 {}
50193 63135 {}
50281 50282 {}
50196 50270 {}
50271 50272 {}
50270 50272 {}
50198 50264 {}
50198 50266 {}
50265 50268 {}
50267 50269 {}
50264 50268 {}
50266 50269 {}
50201 50202 {}
50202 50207 {}
50207 50208 {}
50205 50206 {}
50206 50207 {}
50208 50219 {}
50219 50220 {}
50211 50212 {}
50212 50217 {}
50217 50218 {}
50215 50216 {}
50216 50217 {}
50218 50219 {}
50220 50243 {}
50243 50244 {}
50243 50255 {}
50223 50224 {}
50224 50229 {}
50229 50230 {}
50227 50228 {}
50228 50229 {}
50230 50241 {}
50241 50242 {}
50233 50234 {}
50234 50239 {}
50239 50240 {}
50237 50238 {}
50238 50239 {}
50240 50241 {}
50242 50243 {}
50244 50254 {}
50255 50256 {}
50254 50256 {}
50247 50249 {}
50247 50251 {}
50247 63630 {}
50252 50254 {}
50252 65491 {}
50253 50255 {}
50253 65492 {}
65491 65493 {}
65492 65493 {}
50256 50257 {}
50256 50259 {}
50256 50260 {}
50257 50258 {}
50257 50261 {}
50262 50265 {}
50262 50266 {}
50263 50264 {}
50263 50267 {}
50268 50270 {}
50269 50271 {}
50272 50273 {}
50272 50275 {}
50272 50276 {}
50272 66305 {}
50273 50274 {}
50273 50277 {}
50278 62481 {}
50278 63955 {}
50279 50280 {}
50279 63956 {}
50282 50283 {}
50286 50288 {}
50286 50290 {}
50286 65797 {}
50291 56265 {}
50291 63147 {}
50292 50293 {}
50292 63148 {}
50304 50305 {}
50296 50298 {}
50296 50299 {}
50296 66181 {}
50301 62489 {}
50301 63979 {}
50302 50303 {}
50302 63980 {}
50305 50306 {}
50309 50310 {}
50309 50313 {}
50309 65801 {}
50314 50316 {}
50314 63184 {}
50315 56286 {}
50315 63183 {}
50327 50328 {}
50319 50320 {}
50319 50323 {}
50319 66185 {}
50324 50326 {}
50324 64004 {}
50325 62495 {}
50325 64003 {}
50328 50329 {}
50332 50334 {}
50332 65805 {}
50335 50336 {}
50335 50337 {}
50335 56291 {}
50335 63194 {}
50336 63195 {}
50346 50347 {}
50340 50342 {}
50340 66189 {}
50343 50344 {}
50343 50345 {}
50343 62504 {}
50343 64027 {}
50344 64028 {}
50350 50352 {}
50350 66193 {}
50353 50354 {}
50353 50355 {}
50353 62510 {}
50353 64056 {}
50354 64057 {}
50366 50367 {}
50358 50360 {}
50358 65809 {}
50361 50362 {}
50361 50363 {}
50361 56304 {}
50361 63236 {}
50362 63237 {}
50365 50366 {}
50370 50372 {}
50370 66197 {}
50373 50374 {}
50373 50375 {}
50373 62517 {}
50373 64081 {}
50374 64082 {}
50386 50387 {}
50378 50380 {}
50378 65813 {}
50381 50382 {}
50381 50383 {}
50381 56317 {}
50381 63247 {}
50382 63248 {}
50385 50386 {}
50390 50392 {}
50390 65817 {}
50393 50394 {}
50393 50395 {}
50393 56330 {}
50393 63288 {}
50394 63289 {}
50404 50405 {}
50398 50400 {}
50398 66201 {}
50401 50402 {}
50401 50403 {}
50401 62523 {}
50401 64099 {}
50402 64100 {}
50408 50410 {}
50408 66205 {}
50411 50412 {}
50411 50413 {}
50411 62531 {}
50411 64136 {}
50412 64137 {}
50424 50425 {}
50416 50418 {}
50416 65821 {}
50419 50420 {}
50419 50421 {}
50419 56343 {}
50419 63301 {}
50420 63302 {}
50423 50424 {}
50428 50430 {}
50428 65825 {}
50431 50432 {}
50431 50433 {}
50431 56356 {}
50431 63346 {}
50431 63348 {}
50432 63347 {}
50432 63349 {}
50442 50443 {}
50436 50438 {}
50436 66209 {}
50439 50440 {}
50439 50441 {}
50439 62537 {}
50439 64168 {}
50439 64170 {}
50440 64169 {}
50440 64171 {}
50445 50448 {}
50445 50477 {}
50445 50509 {}
50445 50527 {}
50448 50449 {}
50477 50478 {}
50509 50510 {}
50527 50528 {}
50447 50448 {}
50447 50467 {}
50447 50501 {}
50447 50519 {}
50467 50468 {}
50501 50502 {}
50519 50520 {}
50449 50450 {}
50449 50881 {}
50449 50901 {}
50449 50969 {}
50449 51045 {}
50449 51077 {}
50449 51142 {}
50449 51185 {}
50449 51235 {}
50449 51309 {}
50449 51361 {}
50449 51406 {}
50449 51451 {}
50449 51493 {}
50449 51578 {}
50449 51626 {}
50449 51686 {}
50449 51725 {}
50449 51762 {}
50449 51848 {}
50449 51866 {}
50449 51926 {}
50449 51994 {}
50449 52034 {}
50449 52171 {}
50449 52423 {}
50449 52579 {}
50449 52615 {}
50449 52688 {}
50449 52732 {}
50449 52798 {}
50449 52863 {}
50458 50459 {}
50451 50452 {}
50452 50455 {}
50452 50462 {}
50452 50498 {}
50452 50501 {}
50455 50456 {}
50462 50463 {}
50498 50499 {}
50453 50454 {}
50454 50455 {}
50454 50489 {}
50454 50506 {}
50454 50527 {}
50489 50490 {}
50506 50507 {}
50456 50457 {}
50456 50844 {}
50456 50919 {}
50456 50991 {}
50456 51031 {}
50456 51078 {}
50456 51152 {}
50456 51172 {}
50456 51253 {}
50456 51287 {}
50456 51365 {}
50456 51399 {}
50456 51438 {}
50456 51529 {}
50456 51567 {}
50456 51632 {}
50456 51675 {}
50456 51724 {}
50456 51798 {}
50456 51815 {}
50456 51865 {}
50456 51925 {}
50456 51971 {}
50456 52016 {}
50456 52202 {}
50456 52432 {}
50456 52547 {}
50456 52637 {}
50456 52674 {}
50456 52710 {}
50456 52789 {}
50456 52862 {}
50459 50472 {}
50472 50473 {}
50461 50462 {}
50461 50474 {}
50461 50477 {}
50461 50524 {}
50474 50475 {}
50524 50525 {}
50463 50464 {}
50463 50849 {}
50463 50912 {}
50463 50966 {}
50463 51009 {}
50463 51086 {}
50463 51120 {}
50463 51198 {}
50463 51226 {}
50463 51312 {}
50463 51351 {}
50463 51416 {}
50463 51463 {}
50463 51497 {}
50463 51560 {}
50463 51623 {}
50463 51685 {}
50463 51711 {}
50463 51772 {}
50463 51821 {}
50463 51862 {}
50463 51938 {}
50463 51984 {}
50463 52026 {}
50463 52192 {}
50463 52454 {}
50463 52543 {}
50463 52612 {}
50463 52683 {}
50463 52735 {}
50463 52762 {}
50463 52849 {}
50470 50471 {}
50466 50467 {}
50466 50474 {}
50466 50506 {}
50466 50516 {}
50516 50517 {}
50468 50469 {}
50468 50877 {}
50468 50911 {}
50468 50955 {}
50468 51040 {}
50468 51067 {}
50468 51131 {}
50468 51203 {}
50468 51221 {}
50468 51286 {}
50468 51355 {}
50468 51411 {}
50468 51460 {}
50468 51528 {}
50468 51581 {}
50468 51600 {}
50468 51689 {}
50468 51712 {}
50468 51765 {}
50468 51837 {}
50468 51897 {}
50468 51916 {}
50468 51988 {}
50468 52022 {}
50468 52170 {}
50468 52455 {}
50468 52566 {}
50468 52601 {}
50468 52651 {}
50468 52709 {}
50468 52763 {}
50468 52852 {}
50471 50472 {}
50473 50496 {}
50496 50497 {}
50475 50476 {}
50475 50848 {}
50475 50907 {}
50475 50959 {}
50475 51044 {}
50475 51068 {}
50475 51138 {}
50475 51197 {}
50475 51225 {}
50475 51290 {}
50475 51356 {}
50475 51384 {}
50475 51473 {}
50475 51496 {}
50475 51559 {}
50475 51622 {}
50475 51653 {}
50475 51710 {}
50475 51771 {}
50475 51847 {}
50475 51872 {}
50475 51912 {}
50475 51993 {}
50475 52012 {}
50475 52196 {}
50475 52440 {}
50475 52554 {}
50475 52605 {}
50475 52678 {}
50475 52714 {}
50475 52767 {}
50475 52885 {}
50480 50481 {}
50478 50479 {}
50478 50855 {}
50478 50908 {}
50478 50992 {}
50478 51013 {}
50478 51096 {}
50478 51121 {}
50478 51207 {}
50478 51258 {}
50478 51313 {}
50478 51339 {}
50478 51407 {}
50478 51470 {}
50478 51515 {}
50478 51577 {}
50478 51604 {}
50478 51668 {}
50478 51714 {}
50478 51776 {}
50478 51834 {}
50478 51871 {}
50478 51911 {}
50478 51962 {}
50478 52048 {}
50478 52175 {}
50478 52428 {}
50478 52553 {}
50478 52638 {}
50478 52666 {}
50478 52713 {}
50478 52784 {}
50478 52853 {}
50481 50494 {}
50494 50495 {}
50483 50486 {}
50483 50498 {}
50483 50509 {}
50483 50516 {}
50486 50487 {}
50485 50486 {}
50485 50489 {}
50485 50519 {}
50485 50524 {}
50487 50488 {}
50487 50858 {}
50487 50924 {}
50487 50987 {}
50487 51008 {}
50487 51063 {}
50487 51149 {}
50487 51171 {}
50487 51254 {}
50487 51277 {}
50487 51344 {}
50487 51421 {}
50487 51474 {}
50487 51502 {}
50487 51549 {}
50487 51637 {}
50487 51664 {}
50487 51723 {}
50487 51784 {}
50487 51826 {}
50487 51884 {}
50487 51944 {}
50487 51983 {}
50487 52011 {}
50487 52203 {}
50487 52429 {}
50487 52558 {}
50487 52633 {}
50487 52677 {}
50487 52720 {}
50487 52795 {}
50487 52870 {}
50492 50493 {}
50490 50491 {}
50490 50866 {}
50490 50898 {}
50490 50978 {}
50490 51030 {}
50490 51099 {}
50490 51153 {}
50490 51175 {}
50490 51236 {}
50490 51291 {}
50490 51330 {}
50490 51398 {}
50490 51459 {}
50490 51503 {}
50490 51550 {}
50490 51627 {}
50490 51680 {}
50490 51709 {}
50490 51793 {}
50490 51833 {}
50490 51893 {}
50490 51937 {}
50490 51961 {}
50490 52025 {}
50490 52184 {}
50490 52444 {}
50490 52576 {}
50490 52624 {}
50490 52662 {}
50490 52731 {}
50490 52788 {}
50490 52871 {}
50493 50494 {}
50495 50496 {}
50497 50536 {}
50536 50537 {}
50536 50840 {}
50499 50500 {}
50499 50845 {}
50499 50930 {}
50499 50960 {}
50499 51018 {}
50499 51090 {}
50499 51127 {}
50499 51176 {}
50499 51231 {}
50499 51303 {}
50499 51366 {}
50499 51385 {}
50499 51448 {}
50499 51514 {}
50499 51568 {}
50499 51610 {}
50499 51676 {}
50499 51715 {}
50499 51788 {}
50499 51843 {}
50499 51876 {}
50499 51933 {}
50499 51972 {}
50499 52044 {}
50499 52180 {}
50499 52445 {}
50499 52570 {}
50499 52606 {}
50499 52673 {}
50499 52742 {}
50499 52772 {}
50499 52859 {}
50504 50505 {}
50502 50503 {}
50502 50859 {}
50502 50934 {}
50502 50977 {}
50502 51041 {}
50502 51074 {}
50502 51126 {}
50502 51186 {}
50502 51232 {}
50502 51298 {}
50502 51333 {}
50502 51394 {}
50502 51442 {}
50502 51518 {}
50502 51582 {}
50502 51611 {}
50502 51690 {}
50502 51721 {}
50502 51797 {}
50502 51844 {}
50502 51875 {}
50502 51948 {}
50502 51987 {}
50502 52037 {}
50502 52181 {}
50502 52433 {}
50502 52544 {}
50502 52623 {}
50502 52656 {}
50502 52741 {}
50502 52777 {}
50502 52884 {}
50505 50514 {}
50514 50515 {}
50507 50508 {}
50507 50876 {}
50507 50933 {}
50507 50982 {}
50507 51019 {}
50507 51073 {}
50507 51148 {}
50507 51204 {}
50507 51243 {}
50507 51299 {}
50507 51343 {}
50507 51395 {}
50507 51464 {}
50507 51506 {}
50507 51555 {}
50507 51633 {}
50507 51663 {}
50507 51708 {}
50507 51766 {}
50507 51825 {}
50507 51894 {}
50507 51934 {}
50507 51966 {}
50507 52015 {}
50507 52174 {}
50507 52441 {}
50507 52575 {}
50507 52628 {}
50507 52687 {}
50507 52724 {}
50507 52773 {}
50507 52880 {}
50512 50513 {}
50510 50511 {}
50510 50867 {}
50510 50897 {}
50510 50965 {}
50510 51035 {}
50510 51085 {}
50510 51143 {}
50510 51194 {}
50510 51244 {}
50510 51308 {}
50510 51340 {}
50510 51389 {}
50510 51447 {}
50510 51507 {}
50510 51572 {}
50510 51615 {}
50510 51658 {}
50510 51713 {}
50510 51761 {}
50510 51838 {}
50510 51887 {}
50510 51915 {}
50510 51998 {}
50510 52033 {}
50510 52193 {}
50510 52418 {}
50510 52569 {}
50510 52611 {}
50510 52652 {}
50510 52736 {}
50510 52794 {}
50510 52875 {}
50513 50514 {}
50515 50534 {}
50534 50535 {}
50517 50518 {}
50517 50870 {}
50517 50920 {}
50517 50970 {}
50517 51012 {}
50517 51100 {}
50517 51116 {}
50517 51208 {}
50517 51247 {}
50517 51302 {}
50517 51352 {}
50517 51417 {}
50517 51437 {}
50517 51519 {}
50517 51545 {}
50517 51636 {}
50517 51667 {}
50517 51720 {}
50517 51775 {}
50517 51811 {}
50517 51888 {}
50517 51943 {}
50517 51965 {}
50517 52038 {}
50517 52206 {}
50517 52422 {}
50517 52580 {}
50517 52616 {}
50517 52684 {}
50517 52746 {}
50517 52799 {}
50517 52858 {}
50522 50523 {}
50520 50521 {}
50520 50871 {}
50520 50923 {}
50520 50956 {}
50520 51023 {}
50520 51064 {}
50520 51139 {}
50520 51182 {}
50520 51248 {}
50520 51276 {}
50520 51334 {}
50520 51410 {}
50520 51469 {}
50520 51525 {}
50520 51556 {}
50520 51601 {}
50520 51679 {}
50520 51717 {}
50520 51783 {}
50520 51822 {}
50520 51861 {}
50520 51947 {}
50520 51975 {}
50520 52021 {}
50520 52207 {}
50520 52451 {}
50520 52548 {}
50520 52602 {}
50520 52661 {}
50520 52719 {}
50520 52785 {}
50520 52848 {}
50523 50532 {}
50532 50533 {}
50525 50526 {}
50525 50854 {}
50525 50929 {}
50525 50981 {}
50525 51022 {}
50525 51095 {}
50525 51130 {}
50525 51181 {}
50525 51257 {}
50525 51280 {}
50525 51329 {}
50525 51420 {}
50525 51441 {}
50525 51492 {}
50525 51546 {}
50525 51614 {}
50525 51654 {}
50525 51716 {}
50525 51787 {}
50525 51812 {}
50525 51883 {}
50525 51921 {}
50525 51997 {}
50525 52043 {}
50525 52197 {}
50525 52450 {}
50525 52565 {}
50525 52627 {}
50525 52655 {}
50525 52723 {}
50525 52776 {}
50525 52874 {}
50530 50531 {}
50528 50529 {}
50528 50880 {}
50528 50902 {}
50528 50988 {}
50528 51034 {}
50528 51089 {}
50528 51117 {}
50528 51193 {}
50528 51222 {}
50528 51281 {}
50528 51362 {}
50528 51388 {}
50528 51452 {}
50528 51524 {}
50528 51571 {}
50528 51605 {}
50528 51657 {}
50528 51722 {}
50528 51794 {}
50528 51816 {}
50528 51898 {}
50528 51922 {}
50528 51976 {}
50528 52047 {}
50528 52185 {}
50528 52419 {}
50528 52557 {}
50528 52634 {}
50528 52665 {}
50528 52745 {}
50528 52766 {}
50528 52881 {}
50531 50532 {}
50533 50534 {}
50535 50536 {}
50537 50841 {}
50840 50842 {}
50840 52168 {}
50841 50842 {}
50539 50544 {}
50545 50546 {}
50544 50546 {}
50544 50822 {}
50542 50543 {}
50542 50544 {}
50542 54145 {}
50542 54148 {}
50543 50545 {}
50543 54146 {}
50543 54147 {}
54145 54149 {}
54148 54150 {}
54146 54149 {}
54147 54150 {}
50546 50547 {}
50546 50890 {}
50822 50823 {}
50822 50834 {}
50822 50837 {}
50822 52227 {}
50547 50821 {}
50890 50891 {}
50821 50822 {}
50821 50891 {}
50549 50555 {}
50554 50818 {}
50554 50819 {}
50554 50943 {}
50555 50817 {}
50555 50820 {}
50555 50943 {}
50552 50553 {}
50552 50555 {}
50552 54033 {}
50552 54035 {}
50553 50554 {}
50553 54032 {}
50553 54034 {}
54033 54036 {}
54035 54037 {}
54032 54036 {}
54034 54037 {}
50818 50820 {}
50819 50890 {}
50943 50944 {}
50943 50945 {}
50943 50947 {}
50817 50819 {}
50820 50821 {}
50557 50562 {}
50563 50564 {}
50562 50564 {}
50562 50815 {}
50560 50561 {}
50560 50562 {}
50560 53919 {}
50560 53922 {}
50561 50563 {}
50561 53920 {}
50561 53921 {}
53919 53923 {}
53922 53924 {}
53920 53923 {}
53921 53924 {}
50564 50565 {}
50564 51001 {}
50815 50816 {}
50815 50818 {}
50815 50945 {}
50815 50948 {}
50565 50814 {}
51001 51002 {}
50814 50815 {}
50814 51002 {}
50567 50572 {}
50573 50810 {}
50573 50813 {}
50573 51054 {}
50572 50811 {}
50572 50812 {}
50572 51054 {}
50570 50571 {}
50570 50572 {}
50570 53435 {}
50570 53437 {}
50571 50573 {}
50571 53434 {}
50571 53436 {}
53435 53438 {}
53437 53439 {}
53434 53438 {}
53436 53439 {}
50811 50813 {}
50812 50814 {}
51054 51055 {}
51054 51056 {}
51054 51058 {}
50810 50812 {}
50813 51001 {}
50576 50577 {}
50576 50580 {}
50576 53287 {}
50576 53290 {}
50577 50581 {}
50577 53288 {}
50577 53289 {}
50580 50582 {}
50580 50808 {}
53287 53291 {}
53290 53292 {}
50581 50582 {}
53288 53291 {}
53289 53292 {}
50579 50580 {}
50582 50583 {}
50582 51109 {}
50808 50809 {}
50808 50810 {}
50808 51057 {}
50808 51058 {}
50583 50807 {}
51109 51110 {}
50807 50808 {}
50807 51110 {}
50585 50591 {}
50590 50804 {}
50590 50805 {}
50590 51162 {}
50591 50803 {}
50591 50806 {}
50591 51162 {}
50588 50589 {}
50588 50591 {}
50588 53305 {}
50588 53308 {}
50589 50590 {}
50589 53306 {}
50589 53307 {}
53305 53309 {}
53308 53310 {}
53306 53309 {}
53307 53310 {}
50804 50806 {}
50805 51109 {}
51162 51163 {}
51162 51164 {}
51162 51166 {}
50803 50805 {}
50806 50807 {}
50593 50598 {}
50599 50600 {}
50598 50600 {}
50598 50801 {}
50596 50597 {}
50596 50598 {}
50596 53321 {}
50596 53324 {}
50597 50599 {}
50597 53322 {}
50597 53323 {}
53321 53325 {}
53324 53326 {}
53322 53325 {}
53323 53326 {}
50600 50601 {}
50600 51217 {}
50801 50802 {}
50801 50804 {}
50801 51164 {}
50801 51167 {}
50601 50800 {}
51217 51218 {}
50800 50801 {}
50800 51218 {}
50603 50609 {}
50608 50797 {}
50608 50798 {}
50608 51267 {}
50609 50796 {}
50609 50799 {}
50609 51267 {}
50606 50607 {}
50606 50609 {}
50606 53334 {}
50606 53337 {}
50607 50608 {}
50607 53335 {}
50607 53336 {}
53334 53338 {}
53337 53339 {}
53335 53338 {}
53336 53339 {}
50797 50799 {}
50798 51217 {}
51267 51268 {}
51267 51269 {}
51267 51271 {}
50796 50798 {}
50799 50800 {}
50611 50616 {}
50617 50618 {}
50616 50618 {}
50616 50794 {}
50614 50615 {}
50614 50616 {}
50614 53347 {}
50614 53350 {}
50615 50617 {}
50615 53348 {}
50615 53349 {}
53347 53351 {}
53350 53352 {}
53348 53351 {}
53349 53352 {}
50618 50619 {}
50618 51322 {}
50794 50795 {}
50794 50797 {}
50794 51269 {}
50794 51272 {}
50619 50793 {}
51322 51323 {}
50793 50794 {}
50793 51323 {}
50621 50627 {}
50626 50790 {}
50626 50791 {}
50626 51375 {}
50627 50789 {}
50627 50792 {}
50627 51375 {}
50624 50625 {}
50624 50627 {}
50624 53357 {}
50624 53360 {}
50625 50626 {}
50625 53358 {}
50625 53359 {}
53357 53361 {}
53360 53362 {}
53358 53361 {}
53359 53362 {}
50790 50792 {}
50791 51322 {}
51375 51376 {}
51375 51377 {}
51375 51379 {}
50789 50791 {}
50792 50793 {}
50629 50634 {}
50635 50636 {}
50634 50636 {}
50634 50787 {}
50632 50633 {}
50632 50634 {}
50632 53367 {}
50632 53370 {}
50633 50635 {}
50633 53368 {}
50633 53369 {}
53367 53371 {}
53370 53372 {}
53368 53371 {}
53369 53372 {}
50636 50637 {}
50636 51430 {}
50787 50788 {}
50787 50790 {}
50787 51378 {}
50787 51379 {}
50637 50786 {}
51430 51431 {}
50786 50787 {}
50786 51431 {}
50639 50645 {}
50644 50783 {}
50644 50784 {}
50644 51483 {}
50645 50782 {}
50645 50785 {}
50645 51483 {}
50642 50643 {}
50642 50645 {}
50642 56226 {}
50642 56229 {}
50643 50644 {}
50643 56227 {}
50643 56228 {}
56226 56230 {}
56229 56231 {}
56227 56230 {}
56228 56231 {}
50783 50785 {}
50784 51430 {}
51483 51484 {}
51483 51485 {}
51483 51487 {}
50782 50784 {}
50785 50786 {}
50647 50652 {}
50653 50654 {}
50652 50654 {}
50652 50780 {}
50650 50651 {}
50650 50652 {}
50650 56135 {}
50650 56138 {}
50651 50653 {}
50651 56136 {}
50651 56137 {}
56135 56139 {}
56138 56140 {}
56136 56139 {}
56137 56140 {}
50654 50655 {}
50654 51538 {}
50780 50781 {}
50780 50783 {}
50780 51486 {}
50780 51487 {}
50655 50779 {}
51538 51539 {}
50779 50780 {}
50779 51539 {}
50657 50662 {}
50663 50775 {}
50663 50778 {}
50663 51591 {}
50662 50776 {}
50662 50777 {}
50662 51591 {}
50660 50661 {}
50660 50662 {}
50660 56050 {}
50660 56053 {}
50661 50663 {}
50661 56051 {}
50661 56052 {}
56050 56054 {}
56053 56055 {}
56051 56054 {}
56052 56055 {}
50776 50778 {}
50777 50779 {}
51591 51592 {}
51591 51593 {}
51591 51595 {}
50775 50777 {}
50778 51538 {}
50665 50670 {}
50671 50672 {}
50670 50672 {}
50670 50773 {}
50668 50669 {}
50668 50670 {}
50668 55954 {}
50668 55957 {}
50669 50671 {}
50669 55955 {}
50669 55956 {}
55954 55958 {}
55957 55959 {}
55955 55958 {}
55956 55959 {}
50672 50673 {}
50672 51646 {}
50773 50774 {}
50773 50775 {}
50773 51593 {}
50773 51596 {}
50673 50772 {}
51646 51647 {}
50772 50773 {}
50772 51647 {}
50675 50680 {}
50681 50768 {}
50681 50771 {}
50681 51699 {}
50680 50769 {}
50680 50770 {}
50680 51699 {}
50678 50679 {}
50678 50680 {}
50678 55867 {}
50678 55870 {}
50679 50681 {}
50679 55868 {}
50679 55869 {}
55867 55871 {}
55870 55872 {}
55868 55871 {}
55869 55872 {}
50769 50771 {}
50770 50772 {}
51699 51700 {}
51699 51701 {}
51699 51703 {}
50768 50770 {}
50771 51646 {}
50683 50688 {}
50689 50690 {}
50688 50690 {}
50688 50766 {}
50686 50687 {}
50686 50688 {}
50686 55776 {}
50686 55779 {}
50687 50689 {}
50687 55777 {}
50687 55778 {}
55776 55780 {}
55779 55781 {}
55777 55780 {}
55778 55781 {}
50690 50691 {}
50690 51754 {}
50766 50767 {}
50766 50768 {}
50766 51701 {}
50766 51704 {}
50691 50765 {}
51754 51755 {}
50765 50766 {}
50765 51755 {}
50693 50698 {}
50699 50700 {}
50698 50700 {}
50698 50763 {}
50696 50697 {}
50696 50698 {}
50696 55691 {}
50696 55694 {}
50697 50699 {}
50697 55692 {}
50697 55693 {}
55691 55695 {}
55694 55696 {}
55692 55695 {}
55693 55696 {}
50700 50701 {}
50700 51807 {}
50763 50764 {}
50763 50765 {}
50701 50762 {}
51807 51808 {}
50762 50763 {}
50762 51808 {}
50703 50708 {}
50756 50757 {}
50708 50757 {}
50708 50760 {}
50706 50707 {}
50706 50708 {}
50706 55599 {}
50706 55602 {}
50707 50756 {}
50707 55600 {}
50707 55601 {}
55599 55603 {}
55602 55604 {}
55600 55603 {}
55601 55604 {}
50757 50758 {}
50757 51857 {}
50760 50761 {}
50760 50762 {}
50710 50715 {}
50716 50717 {}
50715 50717 {}
50715 50754 {}
50713 50714 {}
50713 50715 {}
50713 55513 {}
50713 55516 {}
50714 50716 {}
50714 55514 {}
50714 55515 {}
55513 55517 {}
55516 55518 {}
55514 55517 {}
55515 55518 {}
50717 50718 {}
50717 51907 {}
50754 50755 {}
50754 50759 {}
50718 50753 {}
51907 51908 {}
50753 50754 {}
50753 51908 {}
50720 50725 {}
50747 50748 {}
50725 50748 {}
50725 50751 {}
50723 50724 {}
50723 50725 {}
50723 55422 {}
50723 55425 {}
50724 50747 {}
50724 55423 {}
50724 55424 {}
55422 55426 {}
55425 55427 {}
55423 55426 {}
55424 55427 {}
50748 50749 {}
50748 51957 {}
50751 50752 {}
50751 50753 {}
50727 50732 {}
50741 50742 {}
50732 50742 {}
50732 50745 {}
50730 50731 {}
50730 50732 {}
50730 55337 {}
50730 55340 {}
50731 50741 {}
50731 55338 {}
50731 55339 {}
55337 55341 {}
55340 55342 {}
55338 55341 {}
55339 55342 {}
50742 50743 {}
50742 52007 {}
50745 50746 {}
50745 50750 {}
50734 50739 {}
52057 52058 {}
50739 50740 {}
50739 52007 {}
50739 52058 {}
50737 50738 {}
50737 50739 {}
50737 55250 {}
50737 55253 {}
50738 52057 {}
50738 55251 {}
50738 55252 {}
55250 55254 {}
55253 55255 {}
55251 55254 {}
55252 55255 {}
50740 50744 {}
52007 52008 {}
52058 52059 {}
52058 52393 {}
50744 50745 {}
50744 52008 {}
50743 50744 {}
52008 52009 {}
52008 52062 {}
50746 51957 {}
50750 50751 {}
50750 51958 {}
51957 51958 {}
50749 50750 {}
51958 51959 {}
51958 52068 {}
50752 51907 {}
51908 51909 {}
51908 52074 {}
50755 51857 {}
50759 50760 {}
50759 51858 {}
51857 51858 {}
50758 50759 {}
51858 51859 {}
51858 52080 {}
50761 51807 {}
51808 51809 {}
51808 52086 {}
50764 51754 {}
51755 51756 {}
51755 51758 {}
50767 50769 {}
50767 51702 {}
50767 51703 {}
51701 51705 {}
51704 51706 {}
51702 51705 {}
51703 51706 {}
51647 51648 {}
51647 51650 {}
50774 50776 {}
50774 51594 {}
50774 51595 {}
51593 51597 {}
51596 51598 {}
51594 51597 {}
51595 51598 {}
51539 51540 {}
51539 51542 {}
50781 50782 {}
50781 51485 {}
50781 51488 {}
51486 51489 {}
51487 51490 {}
51485 51489 {}
51488 51490 {}
51431 51432 {}
51431 51434 {}
50788 50789 {}
50788 51377 {}
50788 51380 {}
51378 51381 {}
51379 51382 {}
51377 51381 {}
51380 51382 {}
51323 51324 {}
51323 51326 {}
50795 50796 {}
50795 51270 {}
50795 51271 {}
51269 51273 {}
51272 51274 {}
51270 51273 {}
51271 51274 {}
51218 51219 {}
51218 52137 {}
50802 50803 {}
50802 51165 {}
50802 51166 {}
51164 51168 {}
51167 51169 {}
51165 51168 {}
51166 51169 {}
51110 51111 {}
51110 51113 {}
50809 50811 {}
50809 51056 {}
50809 51059 {}
51057 51060 {}
51058 51061 {}
51056 51060 {}
51059 51061 {}
51002 51003 {}
51002 51005 {}
50816 50817 {}
50816 50946 {}
50816 50947 {}
50945 50949 {}
50948 50950 {}
50946 50949 {}
50947 50950 {}
50891 50892 {}
50891 50894 {}
50823 50835 {}
50823 50836 {}
50823 52226 {}
50834 50838 {}
50837 50839 {}
52227 52229 {}
50835 50838 {}
50836 50839 {}
52226 52228 {}
50825 50831 {}
50830 50832 {}
50830 52227 {}
50830 52228 {}
50831 50832 {}
50831 52226 {}
50831 52229 {}
50828 50829 {}
50828 50831 {}
50828 54264 {}
50828 54266 {}
50829 50830 {}
50829 54263 {}
50829 54265 {}
54264 54267 {}
54266 54268 {}
54263 54267 {}
54265 54268 {}
50832 50833 {}
50832 50834 {}
50832 50836 {}
52228 52231 {}
52229 52230 {}
50833 50835 {}
50833 50837 {}
50838 50840 {}
50839 50841 {}
50842 50843 {}
50842 53069 {}
52168 52169 {}
52168 52238 {}
50843 52167 {}
53069 53070 {}
52167 52168 {}
52167 53070 {}
50846 50847 {}
50847 50852 {}
50852 50853 {}
50850 50851 {}
50851 50852 {}
50853 50864 {}
50864 50865 {}
50856 50857 {}
50857 50862 {}
50862 50863 {}
50860 50861 {}
50861 50862 {}
50863 50864 {}
50865 50888 {}
50888 50889 {}
50888 50893 {}
50868 50869 {}
50869 50874 {}
50874 50875 {}
50872 50873 {}
50873 50874 {}
50875 50886 {}
50886 50887 {}
50878 50879 {}
50879 50884 {}
50884 50885 {}
50882 50883 {}
50883 50884 {}
50885 50886 {}
50887 50888 {}
50889 50894 {}
50893 50895 {}
50893 52165 {}
50894 50895 {}
50892 50893 {}
50895 50896 {}
50895 53086 {}
52165 52166 {}
52165 52167 {}
50896 52164 {}
53086 53087 {}
52164 52165 {}
52164 53087 {}
50899 50900 {}
50900 50905 {}
50905 50906 {}
50903 50904 {}
50904 50905 {}
50906 50917 {}
50917 50918 {}
50909 50910 {}
50910 50915 {}
50915 50916 {}
50913 50914 {}
50914 50915 {}
50916 50917 {}
50918 50941 {}
50941 50942 {}
50941 50951 {}
50921 50922 {}
50922 50927 {}
50927 50928 {}
50925 50926 {}
50926 50927 {}
50928 50939 {}
50939 50940 {}
50931 50932 {}
50932 50937 {}
50937 50938 {}
50935 50936 {}
50936 50937 {}
50938 50939 {}
50940 50941 {}
50942 50952 {}
50951 50953 {}
50951 52162 {}
50952 50953 {}
50944 50946 {}
50944 50948 {}
50949 50951 {}
50950 50952 {}
50953 50954 {}
50953 53111 {}
52162 52163 {}
52162 52164 {}
50954 52161 {}
53111 53112 {}
52161 52162 {}
52161 53112 {}
50957 50958 {}
50958 50963 {}
50963 50964 {}
50961 50962 {}
50962 50963 {}
50964 50975 {}
50975 50976 {}
50967 50968 {}
50968 50973 {}
50973 50974 {}
50971 50972 {}
50972 50973 {}
50974 50975 {}
50976 50999 {}
50999 51000 {}
50999 51004 {}
50979 50980 {}
50980 50985 {}
50985 50986 {}
50983 50984 {}
50984 50985 {}
50986 50997 {}
50997 50998 {}
50989 50990 {}
50990 50995 {}
50995 50996 {}
50993 50994 {}
50994 50995 {}
50996 50997 {}
50998 50999 {}
51000 51005 {}
51004 51006 {}
51004 52159 {}
51005 51006 {}
51003 51004 {}
51006 51007 {}
51006 53128 {}
52159 52160 {}
52159 52161 {}
51007 52158 {}
53128 53129 {}
52158 52159 {}
52158 53129 {}
51010 51011 {}
51011 51016 {}
51016 51017 {}
51014 51015 {}
51015 51016 {}
51017 51028 {}
51028 51029 {}
51020 51021 {}
51021 51026 {}
51026 51027 {}
51024 51025 {}
51025 51026 {}
51027 51028 {}
51029 51052 {}
51052 51053 {}
51052 51062 {}
51032 51033 {}
51033 51038 {}
51038 51039 {}
51036 51037 {}
51037 51038 {}
51039 51050 {}
51050 51051 {}
51042 51043 {}
51043 51048 {}
51048 51049 {}
51046 51047 {}
51047 51048 {}
51049 51050 {}
51051 51052 {}
51053 52152 {}
51062 52153 {}
51062 52156 {}
52152 52153 {}
51055 51057 {}
51055 51059 {}
51060 52152 {}
51061 51062 {}
52153 52154 {}
52153 53146 {}
52156 52157 {}
52156 52158 {}
51065 51066 {}
51066 51071 {}
51071 51072 {}
51069 51070 {}
51070 51071 {}
51072 51083 {}
51083 51084 {}
51075 51076 {}
51076 51081 {}
51081 51082 {}
51079 51080 {}
51080 51081 {}
51082 51083 {}
51084 51107 {}
51107 51108 {}
51107 51112 {}
51087 51088 {}
51088 51093 {}
51093 51094 {}
51091 51092 {}
51092 51093 {}
51094 51105 {}
51105 51106 {}
51097 51098 {}
51098 51103 {}
51103 51104 {}
51101 51102 {}
51102 51103 {}
51104 51105 {}
51106 51107 {}
51108 51113 {}
51112 51114 {}
51112 52150 {}
51113 51114 {}
51111 51112 {}
51114 51115 {}
51114 53167 {}
52150 52151 {}
52150 52155 {}
51115 52149 {}
53167 53168 {}
52149 52150 {}
52149 53168 {}
51118 51119 {}
51119 51124 {}
51124 51125 {}
51122 51123 {}
51123 51124 {}
51125 51136 {}
51136 51137 {}
51128 51129 {}
51129 51134 {}
51134 51135 {}
51132 51133 {}
51133 51134 {}
51135 51136 {}
51137 51160 {}
51160 51161 {}
51160 51170 {}
51140 51141 {}
51141 51146 {}
51146 51147 {}
51144 51145 {}
51145 51146 {}
51147 51158 {}
51158 51159 {}
51150 51151 {}
51151 51156 {}
51156 51157 {}
51154 51155 {}
51155 51156 {}
51157 51158 {}
51159 51160 {}
51161 52143 {}
51170 52144 {}
51170 52147 {}
52143 52144 {}
51163 51165 {}
51163 51167 {}
51168 51170 {}
51169 52143 {}
52144 52145 {}
52144 53185 {}
52147 52148 {}
52147 52149 {}
51173 51174 {}
51174 51179 {}
51179 51180 {}
51177 51178 {}
51178 51179 {}
51180 51191 {}
51191 51192 {}
51183 51184 {}
51184 51189 {}
51189 51190 {}
51187 51188 {}
51188 51189 {}
51190 51191 {}
51192 51215 {}
51215 51216 {}
51215 51220 {}
51195 51196 {}
51196 51201 {}
51201 51202 {}
51199 51200 {}
51200 51201 {}
51202 51213 {}
51213 51214 {}
51205 51206 {}
51206 51211 {}
51211 51212 {}
51209 51210 {}
51210 51211 {}
51212 51213 {}
51214 51215 {}
51216 52137 {}
51220 52138 {}
51220 52141 {}
52137 52138 {}
51219 51220 {}
52138 52139 {}
52138 53203 {}
52141 52142 {}
52141 52146 {}
51223 51224 {}
51224 51229 {}
51229 51230 {}
51227 51228 {}
51228 51229 {}
51230 51241 {}
51241 51242 {}
51233 51234 {}
51234 51239 {}
51239 51240 {}
51237 51238 {}
51238 51239 {}
51240 51241 {}
51242 51265 {}
51265 51266 {}
51265 51275 {}
51245 51246 {}
51246 51251 {}
51251 51252 {}
51249 51250 {}
51250 51251 {}
51252 51263 {}
51263 51264 {}
51255 51256 {}
51256 51261 {}
51261 51262 {}
51259 51260 {}
51260 51261 {}
51262 51263 {}
51264 51265 {}
51266 52131 {}
51275 52132 {}
51275 52135 {}
52131 52132 {}
51268 51270 {}
51268 51272 {}
51273 51275 {}
51274 52131 {}
52132 52133 {}
52132 54690 {}
52135 52136 {}
52135 52140 {}
51278 51279 {}
51279 51284 {}
51284 51285 {}
51282 51283 {}
51283 51284 {}
51285 51296 {}
51296 51297 {}
51288 51289 {}
51289 51294 {}
51294 51295 {}
51292 51293 {}
51293 51294 {}
51295 51296 {}
51297 51320 {}
51320 51321 {}
51320 51325 {}
51300 51301 {}
51301 51306 {}
51306 51307 {}
51304 51305 {}
51305 51306 {}
51307 51318 {}
51318 51319 {}
51310 51311 {}
51311 51316 {}
51316 51317 {}
51314 51315 {}
51315 51316 {}
51317 51318 {}
51319 51320 {}
51321 51326 {}
51325 51327 {}
51325 52129 {}
51326 51327 {}
51324 51325 {}
51327 51328 {}
51327 54573 {}
52129 52130 {}
52129 52134 {}
51328 52128 {}
54573 54574 {}
52128 52129 {}
52128 54574 {}
51331 51332 {}
51332 51337 {}
51337 51338 {}
51335 51336 {}
51336 51337 {}
51338 51349 {}
51349 51350 {}
51341 51342 {}
51342 51347 {}
51347 51348 {}
51345 51346 {}
51346 51347 {}
51348 51349 {}
51350 51373 {}
51373 51374 {}
51373 51383 {}
51353 51354 {}
51354 51359 {}
51359 51360 {}
51357 51358 {}
51358 51359 {}
51360 51371 {}
51371 51372 {}
51363 51364 {}
51364 51369 {}
51369 51370 {}
51367 51368 {}
51368 51369 {}
51370 51371 {}
51372 51373 {}
51374 52122 {}
51383 52123 {}
51383 52126 {}
52122 52123 {}
51376 51378 {}
51376 51380 {}
51381 52122 {}
51382 51383 {}
52123 52124 {}
52123 54460 {}
52126 52127 {}
52126 52128 {}
51386 51387 {}
51387 51392 {}
51392 51393 {}
51390 51391 {}
51391 51392 {}
51393 51404 {}
51404 51405 {}
51396 51397 {}
51397 51402 {}
51402 51403 {}
51400 51401 {}
51401 51402 {}
51403 51404 {}
51405 51428 {}
51428 51429 {}
51428 51433 {}
51408 51409 {}
51409 51414 {}
51414 51415 {}
51412 51413 {}
51413 51414 {}
51415 51426 {}
51426 51427 {}
51418 51419 {}
51419 51424 {}
51424 51425 {}
51422 51423 {}
51423 51424 {}
51425 51426 {}
51427 51428 {}
51429 51434 {}
51433 51435 {}
51433 52120 {}
51434 51435 {}
51432 51433 {}
51435 51436 {}
51435 54347 {}
52120 52121 {}
52120 52125 {}
51436 52119 {}
54347 54348 {}
52119 52120 {}
52119 54348 {}
51439 51440 {}
51440 51445 {}
51445 51446 {}
51443 51444 {}
51444 51445 {}
51446 51457 {}
51457 51458 {}
51449 51450 {}
51450 51455 {}
51455 51456 {}
51453 51454 {}
51454 51455 {}
51456 51457 {}
51458 51481 {}
51481 51482 {}
51481 51491 {}
51461 51462 {}
51462 51467 {}
51467 51468 {}
51465 51466 {}
51466 51467 {}
51468 51479 {}
51479 51480 {}
51471 51472 {}
51472 51477 {}
51477 51478 {}
51475 51476 {}
51476 51477 {}
51478 51479 {}
51480 51481 {}
51482 52113 {}
51491 52114 {}
51491 52117 {}
52113 52114 {}
51484 51486 {}
51484 51488 {}
51489 52113 {}
51490 51491 {}
52114 52115 {}
52114 54234 {}
52117 52118 {}
52117 52119 {}
51494 51495 {}
51495 51500 {}
51500 51501 {}
51498 51499 {}
51499 51500 {}
51501 51512 {}
51512 51513 {}
51504 51505 {}
51505 51510 {}
51510 51511 {}
51508 51509 {}
51509 51510 {}
51511 51512 {}
51513 51536 {}
51536 51537 {}
51536 51541 {}
51516 51517 {}
51517 51522 {}
51522 51523 {}
51520 51521 {}
51521 51522 {}
51523 51534 {}
51534 51535 {}
51526 51527 {}
51527 51532 {}
51532 51533 {}
51530 51531 {}
51531 51532 {}
51533 51534 {}
51535 51536 {}
51537 51542 {}
51541 51543 {}
51541 52111 {}
51542 51543 {}
51540 51541 {}
51543 51544 {}
51543 54116 {}
52111 52112 {}
52111 52116 {}
51544 52110 {}
54116 54117 {}
52110 52111 {}
52110 54117 {}
51547 51548 {}
51548 51553 {}
51553 51554 {}
51551 51552 {}
51552 51553 {}
51554 51565 {}
51565 51566 {}
51557 51558 {}
51558 51563 {}
51563 51564 {}
51561 51562 {}
51562 51563 {}
51564 51565 {}
51566 51589 {}
51589 51590 {}
51589 51599 {}
51569 51570 {}
51570 51575 {}
51575 51576 {}
51573 51574 {}
51574 51575 {}
51576 51587 {}
51587 51588 {}
51579 51580 {}
51580 51585 {}
51585 51586 {}
51583 51584 {}
51584 51585 {}
51586 51587 {}
51588 51589 {}
51590 52104 {}
51599 52105 {}
51599 52108 {}
52104 52105 {}
51592 51594 {}
51592 51596 {}
51597 51599 {}
51598 52104 {}
52105 52106 {}
52105 54003 {}
52108 52109 {}
52108 52110 {}
51602 51603 {}
51603 51608 {}
51608 51609 {}
51606 51607 {}
51607 51608 {}
51609 51620 {}
51620 51621 {}
51612 51613 {}
51613 51618 {}
51618 51619 {}
51616 51617 {}
51617 51618 {}
51619 51620 {}
51621 51644 {}
51644 51645 {}
51644 51649 {}
51624 51625 {}
51625 51630 {}
51630 51631 {}
51628 51629 {}
51629 51630 {}
51631 51642 {}
51642 51643 {}
51634 51635 {}
51635 51640 {}
51640 51641 {}
51638 51639 {}
51639 51640 {}
51641 51642 {}
51643 51644 {}
51645 51650 {}
51649 51651 {}
51649 52102 {}
51650 51651 {}
51648 51649 {}
51651 51652 {}
51651 53890 {}
52102 52103 {}
52102 52107 {}
51652 52101 {}
53890 53891 {}
52101 52102 {}
52101 53891 {}
51655 51656 {}
51656 51661 {}
51661 51662 {}
51659 51660 {}
51660 51661 {}
51662 51673 {}
51673 51674 {}
51665 51666 {}
51666 51671 {}
51671 51672 {}
51669 51670 {}
51670 51671 {}
51672 51673 {}
51674 51697 {}
51697 51698 {}
51697 51707 {}
51677 51678 {}
51678 51683 {}
51683 51684 {}
51681 51682 {}
51682 51683 {}
51684 51695 {}
51695 51696 {}
51687 51688 {}
51688 51693 {}
51693 51694 {}
51691 51692 {}
51692 51693 {}
51694 51695 {}
51696 51697 {}
51698 52095 {}
51707 52096 {}
51707 52099 {}
52095 52096 {}
51700 51702 {}
51700 51704 {}
51705 51707 {}
51706 52095 {}
52096 52097 {}
52096 53405 {}
52099 52100 {}
52099 52101 {}
51740 51741 {}
51738 51739 {}
51728 51729 {}
51732 51733 {}
51742 51743 {}
51746 51747 {}
51718 51719 {}
51719 51734 {}
51734 51735 {}
51726 51727 {}
51727 51730 {}
51730 51731 {}
51729 51730 {}
51731 51736 {}
51736 51737 {}
51733 51734 {}
51735 51736 {}
51737 51752 {}
51752 51753 {}
51752 51757 {}
51739 51748 {}
51748 51749 {}
51741 51744 {}
51744 51745 {}
51743 51744 {}
51745 51750 {}
51750 51751 {}
51747 51748 {}
51749 51750 {}
51751 51752 {}
51753 51758 {}
51757 51759 {}
51757 52093 {}
51758 51759 {}
51756 51757 {}
51759 51760 {}
51759 52346 {}
52093 52094 {}
52093 52098 {}
51760 52092 {}
52346 52347 {}
52092 52093 {}
52092 52347 {}
51763 51764 {}
51764 51769 {}
51769 51770 {}
51767 51768 {}
51768 51769 {}
51770 51781 {}
51781 51782 {}
51773 51774 {}
51774 51779 {}
51779 51780 {}
51777 51778 {}
51778 51779 {}
51780 51781 {}
51782 51805 {}
51805 51806 {}
51805 51810 {}
51785 51786 {}
51786 51791 {}
51791 51792 {}
51789 51790 {}
51790 51791 {}
51792 51803 {}
51803 51804 {}
51795 51796 {}
51796 51801 {}
51801 51802 {}
51799 51800 {}
51800 51801 {}
51802 51803 {}
51804 51805 {}
51806 52086 {}
51810 52087 {}
51810 52090 {}
52086 52087 {}
51809 51810 {}
52087 52088 {}
52087 53294 {}
52090 52091 {}
52090 52092 {}
51813 51814 {}
51814 51819 {}
51819 51820 {}
51817 51818 {}
51818 51819 {}
51820 51831 {}
51831 51832 {}
51823 51824 {}
51824 51829 {}
51829 51830 {}
51827 51828 {}
51828 51829 {}
51830 51831 {}
51832 51855 {}
51855 51856 {}
51855 51860 {}
51835 51836 {}
51836 51841 {}
51841 51842 {}
51839 51840 {}
51840 51841 {}
51842 51853 {}
51853 51854 {}
51845 51846 {}
51846 51851 {}
51851 51852 {}
51849 51850 {}
51850 51851 {}
51852 51853 {}
51854 51855 {}
51856 52080 {}
51860 52081 {}
51860 52084 {}
52080 52081 {}
51859 51860 {}
52081 52082 {}
52081 53315 {}
52084 52085 {}
52084 52089 {}
51863 51864 {}
51864 51869 {}
51869 51870 {}
51867 51868 {}
51868 51869 {}
51870 51881 {}
51881 51882 {}
51873 51874 {}
51874 51879 {}
51879 51880 {}
51877 51878 {}
51878 51879 {}
51880 51881 {}
51882 51905 {}
51905 51906 {}
51905 51910 {}
51885 51886 {}
51886 51891 {}
51891 51892 {}
51889 51890 {}
51890 51891 {}
51892 51903 {}
51903 51904 {}
51895 51896 {}
51896 51901 {}
51901 51902 {}
51899 51900 {}
51900 51901 {}
51902 51903 {}
51904 51905 {}
51906 52074 {}
51910 52075 {}
51910 52078 {}
52074 52075 {}
51909 51910 {}
52075 52076 {}
52075 53328 {}
52078 52079 {}
52078 52083 {}
51913 51914 {}
51914 51919 {}
51919 51920 {}
51917 51918 {}
51918 51919 {}
51920 51931 {}
51931 51932 {}
51923 51924 {}
51924 51929 {}
51929 51930 {}
51927 51928 {}
51928 51929 {}
51930 51931 {}
51932 51955 {}
51955 51956 {}
51955 51960 {}
51935 51936 {}
51936 51941 {}
51941 51942 {}
51939 51940 {}
51940 51941 {}
51942 51953 {}
51953 51954 {}
51945 51946 {}
51946 51951 {}
51951 51952 {}
51949 51950 {}
51950 51951 {}
51952 51953 {}
51954 51955 {}
51956 52068 {}
51960 52069 {}
51960 52072 {}
52068 52069 {}
51959 51960 {}
52069 52070 {}
52069 52353 {}
52072 52073 {}
52072 52077 {}
51963 51964 {}
51964 51969 {}
51969 51970 {}
51967 51968 {}
51968 51969 {}
51970 51981 {}
51981 51982 {}
51973 51974 {}
51974 51979 {}
51979 51980 {}
51977 51978 {}
51978 51979 {}
51980 51981 {}
51982 52005 {}
52005 52006 {}
52005 52010 {}
51985 51986 {}
51986 51991 {}
51991 51992 {}
51989 51990 {}
51990 51991 {}
51992 52003 {}
52003 52004 {}
51995 51996 {}
51996 52001 {}
52001 52002 {}
51999 52000 {}
52000 52001 {}
52002 52003 {}
52004 52005 {}
52006 52062 {}
52010 52063 {}
52010 52066 {}
52062 52063 {}
52009 52010 {}
52063 52064 {}
52063 52374 {}
52066 52067 {}
52066 52071 {}
52013 52014 {}
52014 52019 {}
52019 52020 {}
52017 52018 {}
52018 52019 {}
52020 52031 {}
52031 52032 {}
52023 52024 {}
52024 52029 {}
52029 52030 {}
52027 52028 {}
52028 52029 {}
52030 52031 {}
52032 52055 {}
52055 52056 {}
52055 52060 {}
52035 52036 {}
52036 52041 {}
52041 52042 {}
52039 52040 {}
52040 52041 {}
52042 52053 {}
52053 52054 {}
52045 52046 {}
52046 52051 {}
52051 52052 {}
52049 52050 {}
52050 52051 {}
52052 52053 {}
52054 52055 {}
52056 52393 {}
52060 52061 {}
52060 52374 {}
52060 52394 {}
52393 52394 {}
52059 52060 {}
52061 52065 {}
52374 52375 {}
52394 52395 {}
52394 52400 {}
52394 52402 {}
52394 53801 {}
52065 52066 {}
52065 52375 {}
52064 52065 {}
52375 52376 {}
52375 52381 {}
52375 52383 {}
52375 53375 {}
52067 52353 {}
52071 52072 {}
52071 52354 {}
52353 52354 {}
52070 52071 {}
52354 52355 {}
52354 52360 {}
52354 52362 {}
52354 53381 {}
52073 53328 {}
52077 52078 {}
52077 53329 {}
53328 53329 {}
52076 52077 {}
53329 53330 {}
53329 53341 {}
53329 53418 {}
53329 53420 {}
52079 53315 {}
52083 52084 {}
52083 53316 {}
53315 53316 {}
52082 52083 {}
53316 53317 {}
53316 53390 {}
53316 53901 {}
53316 53903 {}
52085 53294 {}
52089 52090 {}
52089 53295 {}
53294 53295 {}
52088 52089 {}
53295 53296 {}
53295 53312 {}
53295 54016 {}
53295 54018 {}
52091 52346 {}
52347 52348 {}
52347 53399 {}
52347 54127 {}
52347 54129 {}
52094 53405 {}
52098 52099 {}
52098 53406 {}
53405 53406 {}
52097 52098 {}
53406 53407 {}
53406 53441 {}
53406 54247 {}
53406 54249 {}
52100 53890 {}
53891 53892 {}
53891 53926 {}
53891 54358 {}
53891 54360 {}
52103 54003 {}
52107 52108 {}
52107 54004 {}
54003 54004 {}
52106 52107 {}
54004 54005 {}
54004 54039 {}
54004 54473 {}
54004 54475 {}
52109 54116 {}
54117 54118 {}
54117 54152 {}
54117 54584 {}
54117 54586 {}
52112 54234 {}
52116 52117 {}
52116 54235 {}
54234 54235 {}
52115 52116 {}
54235 54236 {}
54235 54270 {}
54235 54703 {}
54235 54705 {}
52118 54347 {}
54348 54349 {}
54348 54383 {}
54348 54811 {}
54348 54813 {}
52121 54460 {}
52125 52126 {}
52125 54461 {}
54460 54461 {}
52124 52125 {}
54461 54462 {}
54461 54496 {}
54461 54923 {}
54461 54925 {}
52127 54573 {}
54574 54575 {}
54574 54609 {}
54574 55029 {}
54574 55031 {}
52130 54690 {}
52134 52135 {}
52134 54691 {}
54690 54691 {}
52133 52134 {}
54691 54692 {}
54691 54726 {}
54691 55145 {}
54691 55147 {}
52136 53203 {}
52140 52141 {}
52140 53204 {}
53203 53204 {}
52139 52140 {}
53204 53205 {}
53204 53210 {}
53204 53212 {}
53204 54836 {}
52142 53185 {}
52146 52147 {}
52146 53186 {}
53185 53186 {}
52145 52146 {}
53186 53187 {}
53186 53192 {}
53186 53194 {}
53186 54946 {}
52148 53167 {}
53168 53169 {}
53168 53174 {}
53168 53176 {}
53168 55054 {}
52151 53146 {}
52155 52156 {}
52155 53147 {}
53146 53147 {}
52154 52155 {}
53147 53148 {}
53147 53153 {}
53147 53155 {}
53147 55170 {}
52157 53128 {}
53129 53130 {}
53129 53135 {}
53129 53137 {}
53129 55257 {}
52160 53111 {}
53112 53113 {}
53112 53114 {}
53112 53116 {}
53112 55344 {}
52163 53086 {}
53087 53088 {}
53087 53093 {}
53087 53095 {}
53087 55429 {}
52166 53069 {}
53070 53071 {}
53070 53072 {}
53070 53074 {}
53070 55520 {}
52169 52239 {}
52238 52240 {}
52238 52817 {}
52239 52240 {}
52172 52173 {}
52173 52178 {}
52178 52179 {}
52176 52177 {}
52177 52178 {}
52179 52190 {}
52190 52191 {}
52182 52183 {}
52183 52188 {}
52188 52189 {}
52186 52187 {}
52187 52188 {}
52189 52190 {}
52191 52214 {}
52214 52215 {}
52214 52234 {}
52194 52195 {}
52195 52200 {}
52200 52201 {}
52198 52199 {}
52199 52200 {}
52201 52212 {}
52212 52213 {}
52204 52205 {}
52205 52210 {}
52210 52211 {}
52208 52209 {}
52209 52210 {}
52211 52212 {}
52213 52214 {}
52215 52235 {}
52234 52236 {}
52234 52817 {}
52235 52236 {}
52217 52222 {}
52223 52224 {}
52222 52224 {}
52222 52518 {}
52220 52221 {}
52220 52222 {}
52220 54376 {}
52220 54379 {}
52221 52223 {}
52221 54377 {}
52221 54378 {}
54376 54380 {}
54379 54381 {}
54377 54380 {}
54378 54381 {}
52224 52225 {}
52224 52231 {}
52518 52519 {}
52518 52520 {}
52518 52810 {}
52518 52813 {}
52225 52230 {}
52231 52232 {}
52230 52232 {}
52230 52518 {}
52232 52233 {}
52232 52235 {}
52233 52234 {}
52236 52237 {}
52236 52239 {}
52817 52818 {}
52817 52822 {}
52237 52238 {}
52240 52241 {}
52240 52246 {}
52240 52248 {}
52240 55606 {}
52241 52247 {}
52241 52249 {}
52241 55605 {}
52246 52250 {}
52248 52251 {}
55606 55607 {}
52247 52250 {}
52249 52251 {}
55605 55607 {}
55605 55686 {}
52244 52245 {}
52244 52246 {}
52244 52249 {}
52245 52247 {}
52245 52248 {}
52250 53060 {}
52250 53941 {}
52251 53248 {}
52251 53942 {}
53060 53249 {}
53060 53252 {}
53941 53943 {}
53248 53249 {}
53942 53943 {}
52253 52256 {}
52253 52287 {}
52253 52306 {}
52253 52324 {}
52256 52257 {}
52287 52288 {}
52306 52307 {}
52324 52325 {}
52254 52255 {}
52255 52256 {}
52255 52275 {}
52255 52292 {}
52255 52332 {}
52275 52276 {}
52292 52293 {}
52332 52333 {}
52257 52258 {}
52257 53453 {}
52257 53510 {}
52257 53577 {}
52257 53641 {}
52257 53691 {}
52257 53742 {}
52257 53757 {}
52257 53856 {}
52257 53955 {}
52257 54085 {}
52257 54197 {}
52257 54309 {}
52257 54448 {}
52257 54564 {}
52257 54678 {}
52257 54791 {}
52257 54869 {}
52257 55001 {}
52257 55119 {}
52257 55204 {}
52257 55308 {}
52257 55388 {}
52257 55467 {}
52257 55576 {}
52257 55662 {}
52257 55764 {}
52257 55821 {}
52257 55910 {}
52257 56021 {}
52257 56112 {}
52257 56200 {}
52266 52267 {}
52260 52263 {}
52260 52270 {}
52260 52287 {}
52260 52295 {}
52263 52264 {}
52270 52271 {}
52295 52296 {}
52262 52263 {}
52262 52314 {}
52262 52327 {}
52262 52332 {}
52314 52315 {}
52327 52328 {}
52264 52265 {}
52264 53466 {}
52264 53541 {}
52264 53581 {}
52264 53642 {}
52264 53660 {}
52264 53732 {}
52264 53762 {}
52264 53847 {}
52264 53965 {}
52264 54071 {}
52264 54186 {}
52264 54304 {}
52264 54445 {}
52264 54559 {}
52264 54674 {}
52264 54770 {}
52264 54892 {}
52264 54998 {}
52264 55124 {}
52264 55231 {}
52264 55286 {}
52264 55400 {}
52264 55494 {}
52264 55573 {}
52264 55655 {}
52264 55731 {}
52264 55830 {}
52264 55905 {}
52264 56027 {}
52264 56091 {}
52264 56178 {}
52267 52280 {}
52280 52281 {}
52268 52269 {}
52269 52270 {}
52269 52284 {}
52269 52292 {}
52269 52335 {}
52284 52285 {}
52335 52336 {}
52271 52272 {}
52271 53485 {}
52271 53520 {}
52271 53559 {}
52271 53632 {}
52271 53670 {}
52271 53720 {}
52271 53770 {}
52271 53846 {}
52271 53982 {}
52271 54107 {}
52271 54219 {}
52271 54332 {}
52271 54426 {}
52271 54527 {}
52271 54675 {}
52271 54760 {}
52271 54866 {}
52271 54985 {}
52271 55120 {}
52271 55199 {}
52271 55323 {}
52271 55378 {}
52271 55462 {}
52271 55582 {}
52271 55673 {}
52271 55727 {}
52271 55839 {}
52271 55938 {}
52271 55995 {}
52271 56113 {}
52271 56214 {}
52278 52279 {}
52274 52275 {}
52274 52295 {}
52274 52309 {}
52274 52317 {}
52309 52310 {}
52317 52318 {}
52276 52277 {}
52276 53456 {}
52276 53531 {}
52276 53556 {}
52276 53638 {}
52276 53666 {}
52276 53728 {}
52276 53772 {}
52276 53843 {}
52276 53992 {}
52276 54097 {}
52276 54222 {}
52276 54336 {}
52276 54444 {}
52276 54528 {}
52276 54668 {}
52276 54766 {}
52276 54875 {}
52276 54990 {}
52276 55102 {}
52276 55213 {}
52276 55319 {}
52276 55384 {}
52276 55463 {}
52276 55583 {}
52276 55651 {}
52276 55742 {}
52276 55827 {}
52276 55932 {}
52276 55994 {}
52276 56118 {}
52276 56203 {}
52279 52280 {}
52281 52302 {}
52302 52303 {}
52283 52284 {}
52283 52309 {}
52283 52324 {}
52283 52327 {}
52285 52286 {}
52285 53462 {}
52285 53538 {}
52285 53587 {}
52285 53615 {}
52285 53677 {}
52285 53731 {}
52285 53756 {}
52285 53852 {}
52285 53977 {}
52285 54074 {}
52285 54191 {}
52285 54313 {}
52285 54422 {}
52285 54541 {}
52285 54664 {}
52285 54777 {}
52285 54897 {}
52285 54997 {}
52285 55113 {}
52285 55214 {}
52285 55297 {}
52285 55399 {}
52285 55477 {}
52285 55586 {}
52285 55644 {}
52285 55760 {}
52285 55838 {}
52285 55941 {}
52285 56026 {}
52285 56090 {}
52285 56210 {}
52290 52291 {}
52288 52289 {}
52288 53489 {}
52288 53515 {}
52288 53570 {}
52288 53616 {}
52288 53682 {}
52288 53706 {}
52288 53760 {}
52288 53865 {}
52288 53959 {}
52288 54102 {}
52288 54201 {}
52288 54314 {}
52288 54449 {}
52288 54538 {}
52288 54653 {}
52288 54782 {}
52288 54870 {}
52288 54979 {}
52288 55114 {}
52288 55210 {}
52288 55301 {}
52288 55406 {}
52288 55473 {}
52288 55587 {}
52288 55654 {}
52288 55759 {}
52288 55843 {}
52288 55920 {}
52288 56005 {}
52288 56119 {}
52288 56204 {}
52291 52300 {}
52300 52301 {}
52293 52294 {}
52293 53474 {}
52293 53506 {}
52293 53566 {}
52293 53609 {}
52293 53687 {}
52293 53716 {}
52293 53763 {}
52293 53879 {}
52293 53960 {}
52293 54096 {}
52293 54223 {}
52293 54321 {}
52293 54416 {}
52293 54542 {}
52293 54643 {}
52293 54787 {}
52293 54901 {}
52293 55011 {}
52293 55101 {}
52293 55226 {}
52293 55300 {}
52293 55405 {}
52293 55499 {}
52293 55577 {}
52293 55672 {}
52293 55741 {}
52293 55848 {}
52293 55919 {}
52293 56031 {}
52293 56100 {}
52293 56191 {}
52298 52299 {}
52296 52297 {}
52296 53479 {}
52296 53516 {}
52296 53555 {}
52296 53628 {}
52296 53656 {}
52296 53738 {}
52296 53758 {}
52296 53874 {}
52296 53991 {}
52296 54080 {}
52296 54187 {}
52296 54325 {}
52296 54439 {}
52296 54537 {}
52296 54657 {}
52296 54756 {}
52296 54891 {}
52296 55012 {}
52296 55092 {}
52296 55209 {}
52296 55287 {}
52296 55409 {}
52296 55472 {}
52296 55572 {}
52296 55663 {}
52296 55728 {}
52296 55849 {}
52296 55906 {}
52296 56004 {}
52296 56109 {}
52296 56192 {}
52299 52300 {}
52301 52302 {}
52303 52344 {}
52344 52345 {}
52344 53448 {}
52305 52306 {}
52305 52314 {}
52305 52317 {}
52305 52335 {}
52307 52308 {}
52307 53463 {}
52307 53527 {}
52307 53565 {}
52307 53606 {}
52307 53678 {}
52307 53741 {}
52307 53771 {}
52307 53842 {}
52307 53969 {}
52307 54106 {}
52307 54212 {}
52307 54300 {}
52307 54423 {}
52307 54553 {}
52307 54646 {}
52307 54778 {}
52307 54879 {}
52307 54989 {}
52307 55087 {}
52307 55203 {}
52307 55290 {}
52307 55377 {}
52307 55488 {}
52307 55564 {}
52307 55667 {}
52307 55749 {}
52307 55852 {}
52307 55931 {}
52307 55998 {}
52307 56087 {}
52307 56209 {}
52312 52313 {}
52310 52311 {}
52310 53488 {}
52310 53528 {}
52310 53560 {}
52310 53631 {}
52310 53655 {}
52310 53710 {}
52310 53761 {}
52310 53857 {}
52310 53966 {}
52310 54075 {}
52310 54190 {}
52310 54335 {}
52310 54412 {}
52310 54532 {}
52310 54665 {}
52310 54755 {}
52310 54880 {}
52310 54975 {}
52310 55123 {}
52310 55236 {}
52310 55313 {}
52310 55373 {}
52310 55476 {}
52310 55550 {}
52310 55640 {}
52310 55753 {}
52310 55816 {}
52310 55909 {}
52310 56008 {}
52310 56096 {}
52310 56177 {}
52313 52322 {}
52322 52323 {}
52315 52316 {}
52315 53475 {}
52315 53505 {}
52315 53582 {}
52315 53610 {}
52315 53688 {}
52315 53709 {}
52315 53759 {}
52315 53868 {}
52315 53988 {}
52315 54092 {}
52315 54209 {}
52315 54303 {}
52315 54435 {}
52315 54531 {}
52315 54642 {}
52315 54788 {}
52315 54902 {}
52315 54986 {}
52315 55098 {}
52315 55225 {}
52315 55312 {}
52315 55396 {}
52315 55466 {}
52315 55561 {}
52315 55645 {}
52315 55732 {}
52315 55817 {}
52315 55928 {}
52315 56020 {}
52315 56097 {}
52315 56181 {}
52320 52321 {}
52318 52319 {}
52318 53478 {}
52318 53509 {}
52318 53588 {}
52318 53620 {}
52318 53692 {}
52318 53719 {}
52318 53767 {}
52318 53853 {}
52318 53970 {}
52318 54103 {}
52318 54208 {}
52318 54310 {}
52318 54438 {}
52318 54554 {}
52318 54669 {}
52318 54792 {}
52318 54888 {}
52318 55007 {}
52318 55110 {}
52318 55235 {}
52318 55291 {}
52318 55395 {}
52318 55489 {}
52318 55551 {}
52318 55677 {}
52318 55763 {}
52318 55831 {}
52318 55927 {}
52318 55999 {}
52318 56123 {}
52318 56199 {}
52321 52322 {}
52323 52342 {}
52342 52343 {}
52325 52326 {}
52325 53457 {}
52325 53519 {}
52325 53569 {}
52325 53605 {}
52325 53659 {}
52325 53705 {}
52325 53768 {}
52325 53878 {}
52325 53978 {}
52325 54084 {}
52325 54196 {}
52325 54331 {}
52325 54434 {}
52325 54563 {}
52325 54656 {}
52325 54759 {}
52325 54887 {}
52325 55002 {}
52325 55091 {}
52325 55222 {}
52325 55296 {}
52325 55387 {}
52325 55498 {}
52325 55554 {}
52325 55666 {}
52325 55738 {}
52325 55820 {}
52325 55915 {}
52325 56030 {}
52325 56122 {}
52325 56187 {}
52330 52331 {}
52328 52329 {}
52328 53452 {}
52328 53542 {}
52328 53591 {}
52328 53619 {}
52328 53681 {}
52328 53727 {}
52328 53764 {}
52328 53864 {}
52328 53981 {}
52328 54070 {}
52328 54200 {}
52328 54299 {}
52328 54417 {}
52328 54560 {}
52328 54647 {}
52328 54781 {}
52328 54865 {}
52328 54980 {}
52328 55097 {}
52328 55232 {}
52328 55318 {}
52328 55374 {}
52328 55495 {}
52328 55555 {}
52328 55676 {}
52328 55750 {}
52328 55842 {}
52328 55916 {}
52328 56009 {}
52328 56086 {}
52328 56188 {}
52331 52340 {}
52340 52341 {}
52333 52334 {}
52333 53484 {}
52333 53532 {}
52333 53578 {}
52333 53637 {}
52333 53665 {}
52333 53737 {}
52333 53769 {}
52333 53875 {}
52333 53956 {}
52333 54093 {}
52333 54213 {}
52333 54322 {}
52333 54413 {}
52333 54550 {}
52333 54652 {}
52333 54765 {}
52333 54876 {}
52333 54976 {}
52333 55109 {}
52333 55200 {}
52333 55309 {}
52333 55383 {}
52333 55485 {}
52333 55560 {}
52333 55650 {}
52333 55754 {}
52333 55826 {}
52333 55942 {}
52333 56017 {}
52333 56101 {}
52333 56182 {}
52338 52339 {}
52336 52337 {}
52336 53467 {}
52336 53537 {}
52336 53592 {}
52336 53627 {}
52336 53669 {}
52336 53715 {}
52336 53755 {}
52336 53869 {}
52336 53987 {}
52336 54081 {}
52336 54218 {}
52336 54326 {}
52336 54427 {}
52336 54549 {}
52336 54679 {}
52336 54769 {}
52336 54898 {}
52336 55008 {}
52336 55088 {}
52336 55221 {}
52336 55322 {}
52336 55410 {}
52336 55484 {}
52336 55565 {}
52336 55641 {}
52336 55737 {}
52336 55853 {}
52336 55937 {}
52336 56016 {}
52336 56108 {}
52336 56213 {}
52339 52340 {}
52341 52342 {}
52343 52344 {}
52345 53449 {}
53448 53450 {}
53448 53840 {}
53449 53450 {}
52348 53293 {}
52348 54128 {}
52348 54130 {}
53399 53400 {}
54127 54131 {}
54129 54132 {}
53293 53400 {}
53293 53403 {}
54128 54131 {}
54130 54132 {}
52351 52352 {}
52351 52366 {}
52352 52367 {}
52366 52368 {}
52366 53408 {}
52367 52368 {}
52355 52361 {}
52355 52363 {}
52355 53353 {}
52360 52364 {}
52362 52365 {}
53381 53382 {}
52361 52364 {}
52363 52365 {}
53353 53382 {}
53353 53385 {}
52358 52359 {}
52358 52360 {}
52358 52363 {}
52359 52361 {}
52359 52362 {}
52364 52366 {}
52364 55073 {}
52364 55075 {}
52365 52367 {}
52365 55074 {}
52365 55076 {}
55073 55077 {}
55075 55078 {}
55074 55077 {}
55076 55078 {}
52368 52369 {}
52368 53284 {}
53408 53409 {}
53408 53428 {}
53408 53431 {}
53408 53912 {}
52369 53283 {}
53284 53285 {}
53283 53285 {}
53283 53408 {}
52372 52373 {}
52372 52388 {}
52373 52387 {}
52388 53279 {}
52388 53282 {}
52388 53297 {}
52387 53280 {}
52387 53281 {}
52387 53297 {}
52376 52382 {}
52376 52384 {}
52376 53363 {}
52381 52385 {}
52383 52386 {}
53375 53376 {}
52382 52385 {}
52384 52386 {}
53363 53376 {}
53363 53379 {}
52379 52380 {}
52379 52381 {}
52379 52384 {}
52380 52382 {}
52380 52383 {}
52385 52388 {}
52385 54963 {}
52386 52387 {}
52386 54964 {}
54963 54965 {}
54964 54965 {}
53280 53282 {}
53281 53284 {}
53297 53298 {}
53297 53299 {}
53297 53301 {}
53279 53281 {}
53282 53283 {}
52391 52392 {}
52391 52406 {}
52392 52407 {}
52406 52408 {}
52406 53277 {}
52407 52408 {}
52395 52401 {}
52395 52403 {}
52395 53373 {}
52400 52404 {}
52402 52405 {}
53801 53802 {}
52401 52404 {}
52403 52405 {}
53373 53374 {}
53373 53751 {}
53373 53802 {}
52398 52399 {}
52398 52400 {}
52398 52403 {}
52399 52401 {}
52399 52402 {}
52404 52406 {}
52404 54851 {}
52404 54853 {}
52405 52407 {}
52405 54852 {}
52405 54854 {}
54851 54855 {}
54853 54856 {}
54852 54855 {}
54854 54856 {}
52408 52409 {}
52408 53318 {}
53277 53278 {}
53277 53280 {}
53277 53300 {}
53277 53301 {}
52409 53276 {}
53318 53319 {}
53276 53277 {}
53276 53319 {}
52412 52413 {}
52412 52928 {}
52413 52929 {}
52928 52930 {}
52928 53274 {}
52929 52930 {}
52416 52417 {}
52416 52923 {}
52416 52925 {}
52417 52922 {}
52417 52924 {}
52923 52926 {}
52925 52927 {}
52922 52926 {}
52924 52927 {}
52420 52421 {}
52421 52426 {}
52426 52427 {}
52424 52425 {}
52425 52426 {}
52427 52438 {}
52438 52439 {}
52430 52431 {}
52431 52436 {}
52436 52437 {}
52434 52435 {}
52435 52436 {}
52437 52438 {}
52439 52462 {}
52462 52463 {}
52462 52542 {}
52442 52443 {}
52443 52448 {}
52448 52449 {}
52446 52447 {}
52447 52448 {}
52449 52460 {}
52460 52461 {}
52452 52453 {}
52453 52458 {}
52458 52459 {}
52456 52457 {}
52457 52458 {}
52459 52460 {}
52461 52462 {}
52463 52840 {}
52542 52841 {}
52542 52844 {}
52840 52841 {}
52465 52470 {}
52471 52472 {}
52470 52472 {}
52470 52846 {}
52468 52469 {}
52468 52470 {}
52468 55047 {}
52468 55050 {}
52469 52471 {}
52469 55048 {}
52469 55049 {}
55047 55051 {}
55050 55052 {}
55048 55051 {}
55049 55052 {}
52472 52473 {}
52472 52539 {}
52846 52847 {}
52846 52911 {}
52846 52913 {}
52473 52538 {}
52539 52540 {}
52538 52540 {}
52538 52846 {}
52475 52481 {}
52480 52535 {}
52480 52536 {}
52480 52589 {}
52481 52534 {}
52481 52537 {}
52481 52589 {}
52478 52479 {}
52478 52481 {}
52478 54939 {}
52478 54942 {}
52479 52480 {}
52479 54940 {}
52479 54941 {}
54939 54943 {}
54942 54944 {}
54940 54943 {}
54941 54944 {}
52535 52537 {}
52536 52539 {}
52589 52590 {}
52589 52591 {}
52589 52593 {}
52534 52536 {}
52537 52538 {}
52483 52488 {}
52489 52490 {}
52488 52490 {}
52488 52532 {}
52486 52487 {}
52486 52488 {}
52486 54829 {}
52486 54832 {}
52487 52489 {}
52487 54830 {}
52487 54831 {}
54829 54833 {}
54832 54834 {}
54830 54833 {}
54831 54834 {}
52490 52491 {}
52490 52647 {}
52532 52533 {}
52532 52535 {}
52532 52591 {}
52532 52594 {}
52491 52531 {}
52647 52648 {}
52531 52532 {}
52531 52648 {}
52493 52499 {}
52498 52528 {}
52498 52529 {}
52498 52697 {}
52499 52527 {}
52499 52530 {}
52499 52697 {}
52496 52497 {}
52496 52499 {}
52496 54720 {}
52496 54722 {}
52497 52498 {}
52497 54719 {}
52497 54721 {}
54720 54723 {}
54722 54724 {}
54719 54723 {}
54721 54724 {}
52528 52530 {}
52529 52647 {}
52697 52698 {}
52697 52699 {}
52697 52701 {}
52527 52529 {}
52530 52531 {}
52501 52506 {}
52507 52508 {}
52506 52508 {}
52506 52525 {}
52504 52505 {}
52504 52506 {}
52504 54602 {}
52504 54605 {}
52505 52507 {}
52505 54603 {}
52505 54604 {}
54602 54606 {}
54605 54607 {}
54603 54606 {}
54604 54607 {}
52508 52509 {}
52508 52755 {}
52525 52526 {}
52525 52528 {}
52525 52699 {}
52525 52702 {}
52509 52524 {}
52755 52756 {}
52524 52525 {}
52524 52756 {}
52511 52516 {}
52517 52520 {}
52517 52523 {}
52517 52808 {}
52516 52521 {}
52516 52522 {}
52516 52808 {}
52514 52515 {}
52514 52516 {}
52514 54490 {}
52514 54492 {}
52515 52517 {}
52515 54489 {}
52515 54491 {}
54490 54493 {}
54492 54494 {}
54489 54493 {}
54491 54494 {}
52521 52523 {}
52522 52524 {}
52808 52809 {}
52808 52810 {}
52808 52812 {}
52520 52522 {}
52523 52755 {}
52519 52521 {}
52519 52811 {}
52519 52812 {}
52810 52814 {}
52813 52815 {}
52811 52814 {}
52812 52815 {}
52756 52757 {}
52756 52759 {}
52526 52527 {}
52526 52700 {}
52526 52701 {}
52699 52703 {}
52702 52704 {}
52700 52703 {}
52701 52704 {}
52648 52649 {}
52648 52831 {}
52533 52534 {}
52533 52592 {}
52533 52593 {}
52591 52595 {}
52594 52596 {}
52592 52595 {}
52593 52596 {}
52540 52541 {}
52540 52840 {}
52541 52542 {}
52841 52842 {}
52841 52936 {}
52844 52845 {}
52844 52916 {}
52844 52918 {}
52545 52546 {}
52546 52551 {}
52551 52552 {}
52549 52550 {}
52550 52551 {}
52552 52563 {}
52563 52564 {}
52555 52556 {}
52556 52561 {}
52561 52562 {}
52559 52560 {}
52560 52561 {}
52562 52563 {}
52564 52587 {}
52587 52588 {}
52587 52597 {}
52567 52568 {}
52568 52573 {}
52573 52574 {}
52571 52572 {}
52572 52573 {}
52574 52585 {}
52585 52586 {}
52577 52578 {}
52578 52583 {}
52583 52584 {}
52581 52582 {}
52582 52583 {}
52584 52585 {}
52586 52587 {}
52588 52598 {}
52597 52599 {}
52597 52838 {}
52598 52599 {}
52590 52592 {}
52590 52594 {}
52595 52597 {}
52596 52598 {}
52599 52600 {}
52599 52961 {}
52838 52839 {}
52838 52843 {}
52600 52837 {}
52961 52962 {}
52837 52838 {}
52837 52962 {}
52603 52604 {}
52604 52609 {}
52609 52610 {}
52607 52608 {}
52608 52609 {}
52610 52621 {}
52621 52622 {}
52613 52614 {}
52614 52619 {}
52619 52620 {}
52617 52618 {}
52618 52619 {}
52620 52621 {}
52622 52645 {}
52645 52646 {}
52645 52650 {}
52625 52626 {}
52626 52631 {}
52631 52632 {}
52629 52630 {}
52630 52631 {}
52632 52643 {}
52643 52644 {}
52635 52636 {}
52636 52641 {}
52641 52642 {}
52639 52640 {}
52640 52641 {}
52642 52643 {}
52644 52645 {}
52646 52831 {}
52650 52832 {}
52650 52835 {}
52831 52832 {}
52649 52650 {}
52832 52833 {}
52832 52978 {}
52835 52836 {}
52835 52837 {}
52653 52654 {}
52654 52659 {}
52659 52660 {}
52657 52658 {}
52658 52659 {}
52660 52671 {}
52671 52672 {}
52663 52664 {}
52664 52669 {}
52669 52670 {}
52667 52668 {}
52668 52669 {}
52670 52671 {}
52672 52695 {}
52695 52696 {}
52695 52705 {}
52675 52676 {}
52676 52681 {}
52681 52682 {}
52679 52680 {}
52680 52681 {}
52682 52693 {}
52693 52694 {}
52685 52686 {}
52686 52691 {}
52691 52692 {}
52689 52690 {}
52690 52691 {}
52692 52693 {}
52694 52695 {}
52696 52706 {}
52705 52707 {}
52705 52829 {}
52706 52707 {}
52698 52700 {}
52698 52702 {}
52703 52705 {}
52704 52706 {}
52707 52708 {}
52707 53003 {}
52829 52830 {}
52829 52834 {}
52708 52828 {}
53003 53004 {}
52828 52829 {}
52828 53004 {}
52711 52712 {}
52712 52717 {}
52717 52718 {}
52715 52716 {}
52716 52717 {}
52718 52729 {}
52729 52730 {}
52721 52722 {}
52722 52727 {}
52727 52728 {}
52725 52726 {}
52726 52727 {}
52728 52729 {}
52730 52753 {}
52753 52754 {}
52753 52758 {}
52733 52734 {}
52734 52739 {}
52739 52740 {}
52737 52738 {}
52738 52739 {}
52740 52751 {}
52751 52752 {}
52743 52744 {}
52744 52749 {}
52749 52750 {}
52747 52748 {}
52748 52749 {}
52750 52751 {}
52752 52753 {}
52754 52759 {}
52758 52760 {}
52758 52826 {}
52759 52760 {}
52757 52758 {}
52760 52761 {}
52760 53020 {}
52826 52827 {}
52826 52828 {}
52761 52825 {}
53020 53021 {}
52825 52826 {}
52825 53021 {}
52764 52765 {}
52765 52770 {}
52770 52771 {}
52768 52769 {}
52769 52770 {}
52771 52782 {}
52782 52783 {}
52774 52775 {}
52775 52780 {}
52780 52781 {}
52778 52779 {}
52779 52780 {}
52781 52782 {}
52783 52806 {}
52806 52807 {}
52806 52816 {}
52786 52787 {}
52787 52792 {}
52792 52793 {}
52790 52791 {}
52791 52792 {}
52793 52804 {}
52804 52805 {}
52796 52797 {}
52797 52802 {}
52802 52803 {}
52800 52801 {}
52801 52802 {}
52803 52804 {}
52805 52806 {}
52807 52819 {}
52816 52820 {}
52816 52823 {}
52819 52820 {}
52809 52811 {}
52809 52813 {}
52814 52816 {}
52815 52819 {}
52820 52821 {}
52820 53041 {}
52823 52824 {}
52823 52825 {}
52818 53041 {}
52822 52823 {}
52822 53042 {}
53041 53042 {}
52821 52822 {}
53042 53043 {}
53042 53048 {}
53042 53050 {}
53042 55698 {}
52824 53020 {}
53021 53022 {}
53021 53027 {}
53021 53029 {}
53021 55783 {}
52827 53003 {}
53004 53005 {}
53004 53006 {}
53004 53008 {}
53004 55874 {}
52830 52978 {}
52834 52835 {}
52834 52979 {}
52978 52979 {}
52833 52834 {}
52979 52980 {}
52979 52985 {}
52979 52987 {}
52979 55961 {}
52836 52961 {}
52962 52963 {}
52962 52964 {}
52962 52966 {}
52962 56057 {}
52839 52936 {}
52843 52844 {}
52843 52937 {}
52936 52937 {}
52842 52843 {}
52937 52938 {}
52937 52943 {}
52937 52945 {}
52937 56142 {}
52845 52917 {}
52845 52919 {}
52916 52920 {}
52918 52921 {}
52917 52920 {}
52919 52921 {}
52847 52910 {}
52847 52912 {}
52911 52914 {}
52913 52915 {}
52910 52914 {}
52912 52915 {}
52850 52851 {}
52851 52856 {}
52856 52857 {}
52854 52855 {}
52855 52856 {}
52857 52868 {}
52868 52869 {}
52860 52861 {}
52861 52866 {}
52866 52867 {}
52864 52865 {}
52865 52866 {}
52867 52868 {}
52869 52892 {}
52892 52893 {}
52892 52905 {}
52892 52906 {}
52872 52873 {}
52873 52878 {}
52878 52879 {}
52876 52877 {}
52877 52878 {}
52879 52890 {}
52890 52891 {}
52882 52883 {}
52883 52888 {}
52888 52889 {}
52886 52887 {}
52887 52888 {}
52889 52890 {}
52891 52892 {}
52893 52904 {}
52893 52907 {}
52905 52908 {}
52906 52909 {}
52904 52908 {}
52907 52909 {}
52895 52901 {}
52900 52902 {}
52901 52902 {}
52898 52899 {}
52898 52901 {}
52898 55164 {}
52898 55166 {}
52899 52900 {}
52899 55163 {}
52899 55165 {}
55164 55167 {}
55166 55168 {}
55163 55167 {}
55165 55168 {}
52902 52903 {}
52902 52905 {}
52902 52907 {}
52903 52904 {}
52903 52906 {}
52908 52910 {}
52908 52913 {}
52909 52911 {}
52909 52912 {}
52914 52917 {}
52914 52918 {}
52915 52916 {}
52915 52919 {}
52920 52922 {}
52920 52925 {}
52920 56233 {}
52920 56234 {}
52921 52923 {}
52921 52924 {}
52921 56232 {}
52921 56235 {}
56233 56236 {}
56234 56237 {}
56232 56236 {}
56235 56237 {}
52926 52928 {}
52926 54741 {}
52926 54744 {}
52927 52929 {}
52927 54742 {}
52927 54743 {}
54741 54745 {}
54744 54746 {}
54742 54745 {}
54743 54746 {}
52930 52931 {}
52930 53331 {}
53274 53275 {}
53274 53276 {}
52931 53273 {}
53331 53332 {}
53273 53274 {}
53273 53332 {}
52934 52935 {}
52934 52949 {}
52935 52950 {}
52949 52951 {}
52949 53271 {}
52950 52951 {}
52938 52944 {}
52938 52946 {}
52938 56141 {}
52943 52947 {}
52945 52948 {}
56142 56143 {}
52944 52947 {}
52946 52948 {}
56141 56143 {}
56141 56175 {}
52941 52942 {}
52941 52943 {}
52941 52946 {}
52942 52944 {}
52942 52945 {}
52947 52949 {}
52947 54628 {}
52947 54631 {}
52948 52950 {}
52948 54629 {}
52948 54630 {}
54628 54632 {}
54631 54633 {}
54629 54632 {}
54630 54633 {}
52951 52952 {}
52951 53344 {}
53271 53272 {}
53271 53273 {}
52952 53270 {}
53344 53345 {}
53270 53271 {}
53270 53345 {}
52955 52956 {}
52955 52970 {}
52956 52971 {}
52970 52972 {}
52970 53268 {}
52971 52972 {}
52959 52960 {}
52959 52964 {}
52959 52967 {}
52960 52965 {}
52960 52966 {}
52964 52968 {}
52967 52969 {}
52965 52968 {}
52966 52969 {}
52963 52965 {}
52963 52967 {}
52963 56056 {}
56057 56058 {}
56057 56146 {}
56057 56147 {}
56056 56058 {}
56056 56145 {}
56056 56148 {}
52968 52970 {}
52968 54513 {}
52968 54516 {}
52969 52971 {}
52969 54514 {}
52969 54515 {}
54513 54517 {}
54516 54518 {}
54514 54517 {}
54515 54518 {}
52972 52973 {}
52972 53354 {}
53268 53269 {}
53268 53270 {}
52973 53267 {}
53354 53355 {}
53267 53268 {}
53267 53355 {}
52976 52977 {}
52976 52991 {}
52977 52992 {}
52991 52993 {}
52991 53265 {}
52992 52993 {}
52980 52986 {}
52980 52988 {}
52980 55960 {}
52985 52989 {}
52987 52990 {}
55961 55962 {}
52986 52989 {}
52988 52990 {}
55960 55962 {}
55960 56040 {}
52983 52984 {}
52983 52985 {}
52983 52988 {}
52984 52986 {}
52984 52987 {}
52989 52991 {}
52989 54398 {}
52989 54400 {}
52990 52992 {}
52990 54399 {}
52990 54401 {}
54398 54402 {}
54400 54403 {}
54399 54402 {}
54401 54403 {}
52993 52994 {}
52993 53364 {}
53265 53266 {}
53265 53267 {}
52994 53264 {}
53364 53365 {}
53264 53265 {}
53264 53365 {}
52997 52998 {}
52997 53012 {}
52998 53013 {}
53012 53014 {}
53012 53262 {}
53013 53014 {}
53001 53002 {}
53001 53006 {}
53001 53009 {}
53002 53007 {}
53002 53008 {}
53006 53010 {}
53009 53011 {}
53007 53010 {}
53008 53011 {}
53005 53007 {}
53005 53009 {}
53005 55873 {}
55874 55875 {}
55874 55965 {}
55874 55966 {}
55873 55875 {}
55873 55964 {}
55873 55967 {}
53010 53012 {}
53010 54285 {}
53010 54287 {}
53011 53013 {}
53011 54286 {}
53011 54288 {}
54285 54289 {}
54287 54290 {}
54286 54289 {}
54288 54290 {}
53014 53015 {}
53014 56223 {}
53262 53263 {}
53262 53264 {}
53015 53261 {}
56223 56224 {}
53261 53262 {}
53261 56224 {}
53018 53019 {}
53018 53033 {}
53019 53034 {}
53033 53035 {}
53033 53259 {}
53034 53035 {}
53022 53028 {}
53022 53030 {}
53022 55782 {}
53027 53031 {}
53029 53032 {}
55783 55784 {}
53028 53031 {}
53030 53032 {}
55782 55784 {}
55782 55862 {}
53025 53026 {}
53025 53027 {}
53025 53030 {}
53026 53028 {}
53026 53029 {}
53031 53033 {}
53031 54171 {}
53031 54174 {}
53032 53034 {}
53032 54172 {}
53032 54173 {}
54171 54175 {}
54174 54176 {}
54172 54175 {}
54173 54176 {}
53035 53036 {}
53035 56132 {}
53259 53260 {}
53259 53261 {}
53036 53258 {}
56132 56133 {}
53258 53259 {}
53258 56133 {}
53039 53040 {}
53039 53054 {}
53040 53055 {}
53054 53255 {}
53054 53256 {}
53054 56042 {}
53055 53254 {}
53055 53257 {}
53055 56042 {}
53043 53049 {}
53043 53051 {}
53043 55697 {}
53048 53052 {}
53050 53053 {}
55698 55699 {}
55698 55787 {}
55698 55788 {}
53049 53052 {}
53051 53053 {}
55697 55699 {}
55697 55786 {}
55697 55789 {}
53046 53047 {}
53046 53048 {}
53046 53051 {}
53047 53049 {}
53047 53050 {}
53052 53054 {}
53052 54056 {}
53052 54058 {}
53053 53055 {}
53053 54057 {}
53053 54059 {}
54056 54060 {}
54058 54061 {}
54057 54060 {}
54059 54061 {}
53255 53257 {}
53256 53258 {}
56042 56043 {}
56042 56044 {}
56042 56047 {}
53254 53256 {}
53257 56132 {}
53058 53059 {}
53058 53060 {}
53059 53248 {}
53249 53250 {}
53249 55951 {}
53252 53253 {}
53252 53254 {}
53252 56045 {}
53252 56047 {}
53063 53064 {}
53063 53078 {}
53064 53079 {}
53078 53080 {}
53078 53246 {}
53079 53080 {}
53067 53068 {}
53067 53072 {}
53067 53075 {}
53068 53073 {}
53068 53074 {}
53072 53076 {}
53075 53077 {}
53073 53076 {}
53074 53077 {}
53071 53073 {}
53071 53075 {}
53071 55519 {}
55520 55521 {}
55520 55610 {}
55520 55611 {}
55519 55521 {}
55519 55609 {}
55519 55612 {}
53076 53078 {}
53076 56360 {}
53077 53079 {}
53077 56361 {}
56360 56362 {}
56361 56362 {}
53080 53081 {}
53080 55864 {}
53246 53247 {}
53246 53251 {}
53081 53245 {}
55864 55865 {}
53245 53246 {}
53245 55865 {}
53084 53085 {}
53084 53099 {}
53085 53100 {}
53099 53101 {}
53099 53243 {}
53100 53101 {}
53088 53094 {}
53088 53096 {}
53088 55428 {}
53093 53097 {}
53095 53098 {}
55429 55430 {}
53094 53097 {}
53096 53098 {}
55428 55430 {}
55428 55508 {}
53091 53092 {}
53091 53093 {}
53091 53096 {}
53092 53094 {}
53092 53095 {}
53097 53099 {}
53097 56347 {}
53098 53100 {}
53098 56348 {}
56347 56349 {}
56348 56349 {}
53101 53102 {}
53101 55773 {}
53243 53244 {}
53243 53245 {}
53102 53242 {}
55773 55774 {}
53242 53243 {}
53242 55774 {}
53105 53106 {}
53105 53120 {}
53106 53121 {}
53120 53122 {}
53120 53240 {}
53121 53122 {}
53109 53110 {}
53109 53114 {}
53109 53117 {}
53110 53115 {}
53110 53116 {}
53114 53118 {}
53117 53119 {}
53115 53118 {}
53116 53119 {}
53113 53115 {}
53113 53117 {}
53113 55343 {}
55344 55345 {}
55344 55433 {}
55344 55434 {}
55343 55345 {}
55343 55432 {}
55343 55435 {}
53118 53120 {}
53118 56334 {}
53119 53121 {}
53119 56335 {}
56334 56336 {}
56335 56336 {}
53122 53123 {}
53122 55688 {}
53240 53241 {}
53240 53242 {}
53123 53239 {}
55688 55689 {}
53239 53240 {}
53239 55689 {}
53126 53127 {}
53126 53141 {}
53127 53233 {}
53141 53234 {}
53141 53237 {}
53233 53234 {}
53130 53136 {}
53130 53138 {}
53130 55256 {}
53135 53139 {}
53137 53140 {}
55257 55258 {}
53136 53139 {}
53138 53140 {}
55256 55258 {}
55256 55332 {}
53133 53134 {}
53133 53135 {}
53133 53138 {}
53134 53136 {}
53134 53137 {}
53139 53141 {}
53139 56321 {}
53140 53233 {}
53140 56322 {}
56321 56323 {}
56322 56323 {}
53234 53235 {}
53234 55596 {}
53237 53238 {}
53237 53239 {}
53144 53145 {}
53144 53159 {}
53145 53160 {}
53159 53161 {}
53159 53231 {}
53160 53161 {}
53148 53154 {}
53148 53156 {}
53148 55169 {}
53153 53157 {}
53155 53158 {}
55170 55171 {}
53154 53157 {}
53156 53158 {}
55169 55171 {}
55169 55245 {}
53151 53152 {}
53151 53153 {}
53151 53156 {}
53152 53154 {}
53152 53155 {}
53157 53159 {}
53157 56308 {}
53158 53160 {}
53158 56309 {}
56308 56310 {}
56309 56310 {}
53161 53162 {}
53161 55510 {}
53231 53232 {}
53231 53236 {}
53162 53230 {}
55510 55511 {}
53230 53231 {}
53230 55511 {}
53165 53166 {}
53165 53180 {}
53166 53224 {}
53180 53225 {}
53180 53228 {}
53224 53225 {}
53169 53175 {}
53169 53177 {}
53169 55053 {}
53174 53178 {}
53176 53179 {}
55054 55055 {}
53175 53178 {}
53177 53179 {}
55053 55055 {}
55053 55133 {}
53172 53173 {}
53172 53174 {}
53172 53177 {}
53173 53175 {}
53173 53176 {}
53178 53180 {}
53178 56295 {}
53179 53224 {}
53179 56296 {}
56295 56297 {}
56296 56297 {}
53225 53226 {}
53225 55419 {}
53228 53229 {}
53228 53230 {}
53183 53184 {}
53183 53198 {}
53184 53218 {}
53198 53219 {}
53198 53222 {}
53218 53219 {}
53187 53193 {}
53187 53195 {}
53187 54945 {}
53192 53196 {}
53194 53197 {}
54946 54947 {}
54946 55058 {}
54946 55059 {}
53193 53196 {}
53195 53197 {}
54945 54947 {}
54945 55057 {}
54945 55060 {}
53190 53191 {}
53190 53192 {}
53190 53195 {}
53191 53193 {}
53191 53194 {}
53196 53198 {}
53196 56281 {}
53197 53218 {}
53197 56282 {}
56281 56283 {}
56282 56283 {}
53219 53220 {}
53219 55334 {}
53222 53223 {}
53222 53227 {}
53201 53202 {}
53201 53216 {}
53202 55247 {}
53216 53217 {}
53216 55248 {}
53216 55334 {}
55247 55248 {}
53205 53211 {}
53205 53213 {}
53205 54835 {}
53210 53214 {}
53212 53215 {}
54836 54837 {}
53211 53214 {}
53213 53215 {}
54835 54837 {}
54835 54911 {}
53208 53209 {}
53208 53210 {}
53208 53213 {}
53209 53211 {}
53209 53212 {}
53214 53216 {}
53214 56269 {}
53215 55247 {}
53215 56270 {}
56269 56271 {}
56270 56271 {}
53217 53221 {}
55248 55249 {}
55248 55250 {}
55248 55252 {}
55248 63365 {}
55334 55335 {}
53221 53222 {}
53221 55335 {}
53220 53221 {}
55335 55336 {}
55335 55337 {}
55335 55339 {}
55335 63387 {}
53223 55419 {}
53227 53228 {}
53227 55420 {}
55419 55420 {}
53226 53227 {}
55420 55421 {}
55420 55422 {}
55420 55424 {}
55420 63402 {}
53229 55510 {}
55511 55512 {}
55511 55513 {}
55511 55515 {}
55511 63437 {}
53232 55596 {}
53236 53237 {}
53236 55597 {}
55596 55597 {}
53235 53236 {}
55597 55598 {}
55597 55599 {}
55597 55601 {}
55597 63461 {}
53238 55688 {}
55689 55690 {}
55689 55691 {}
55689 55693 {}
55689 63487 {}
53241 55773 {}
55774 55775 {}
55774 55776 {}
55774 55778 {}
55774 63513 {}
53244 55864 {}
55865 55866 {}
55865 55867 {}
55865 55869 {}
55865 63528 {}
53247 55951 {}
53251 53252 {}
53251 55952 {}
55951 55952 {}
53250 53251 {}
55952 55953 {}
55952 55954 {}
55952 55956 {}
55952 63552 {}
53253 53255 {}
53253 56044 {}
53253 56046 {}
56045 56048 {}
56047 56049 {}
56044 56048 {}
56046 56049 {}
56133 56134 {}
56133 56135 {}
56133 56137 {}
56133 63614 {}
53260 56223 {}
56224 56225 {}
56224 56226 {}
56224 56228 {}
56224 63642 {}
53263 53364 {}
53365 53366 {}
53365 53367 {}
53365 53369 {}
53365 63655 {}
53266 53354 {}
53355 53356 {}
53355 53357 {}
53355 53359 {}
53355 63691 {}
53269 53344 {}
53345 53346 {}
53345 53347 {}
53345 53349 {}
53345 63717 {}
53272 53331 {}
53332 53333 {}
53332 53334 {}
53332 53336 {}
53332 63736 {}
53275 53318 {}
53319 53320 {}
53319 53321 {}
53319 53323 {}
53319 63761 {}
53278 53279 {}
53278 53299 {}
53278 53302 {}
53300 53303 {}
53301 53304 {}
53299 53303 {}
53302 53304 {}
53285 53286 {}
53285 53287 {}
53285 53289 {}
53285 63809 {}
53286 53288 {}
53286 53290 {}
53286 63808 {}
63809 63810 {}
63808 63810 {}
63808 63837 {}
53291 53293 {}
53291 64915 {}
53292 53399 {}
53292 64916 {}
64915 64917 {}
64916 64917 {}
53400 53401 {}
53400 53498 {}
53403 53404 {}
53403 53444 {}
53296 53311 {}
53296 54017 {}
53296 54019 {}
53312 53313 {}
54016 54020 {}
54018 54021 {}
53311 53313 {}
53311 53397 {}
54017 54020 {}
54019 54021 {}
53298 53300 {}
53298 53302 {}
53303 53305 {}
53303 53307 {}
53303 63796 {}
53304 53306 {}
53304 53308 {}
53304 63795 {}
63796 63797 {}
63796 63813 {}
63796 63814 {}
63795 63797 {}
63795 63812 {}
63795 63815 {}
53309 53311 {}
53309 64901 {}
53310 53312 {}
53310 64902 {}
64901 64903 {}
64902 64903 {}
53313 53314 {}
53313 53551 {}
53397 53398 {}
53397 53402 {}
53314 53396 {}
53551 53552 {}
53396 53397 {}
53396 53552 {}
53317 53327 {}
53317 53902 {}
53317 53904 {}
53390 53391 {}
53901 53905 {}
53903 53906 {}
53327 53391 {}
53327 53394 {}
53902 53905 {}
53904 53906 {}
53320 53322 {}
53320 53324 {}
53320 63760 {}
63761 63762 {}
63760 63762 {}
63760 63793 {}
53325 53327 {}
53325 64888 {}
53326 53390 {}
53326 64889 {}
64888 64890 {}
64889 64890 {}
53391 53392 {}
53391 53601 {}
53394 53395 {}
53394 53396 {}
53330 53340 {}
53330 53419 {}
53330 53421 {}
53341 53342 {}
53418 53422 {}
53420 53423 {}
53340 53342 {}
53340 53388 {}
53419 53422 {}
53421 53423 {}
53333 53335 {}
53333 53337 {}
53333 63735 {}
63736 63737 {}
63735 63737 {}
63735 63758 {}
53338 53340 {}
53338 64875 {}
53339 53341 {}
53339 64876 {}
64875 64877 {}
64876 64877 {}
53342 53343 {}
53342 53651 {}
53388 53389 {}
53388 53393 {}
53343 53387 {}
53651 53652 {}
53387 53388 {}
53387 53652 {}
53346 53348 {}
53346 53350 {}
53346 63716 {}
63717 63718 {}
63716 63718 {}
63716 63733 {}
53351 53353 {}
53351 64858 {}
53352 53381 {}
53352 64857 {}
64858 64859 {}
64857 64859 {}
53382 53383 {}
53382 53701 {}
53385 53386 {}
53385 53387 {}
53356 53358 {}
53356 53360 {}
53356 63690 {}
63691 63692 {}
63691 63721 {}
63691 63722 {}
63690 63692 {}
63690 63720 {}
63690 63723 {}
53361 53363 {}
53361 64848 {}
53362 53375 {}
53362 64849 {}
64848 64850 {}
64849 64850 {}
53376 53377 {}
53376 53751 {}
53379 53380 {}
53379 53384 {}
53366 53368 {}
53366 53370 {}
53366 63654 {}
63655 63656 {}
63654 63656 {}
63654 63688 {}
53371 53373 {}
53371 64834 {}
53372 53801 {}
53372 64835 {}
64834 64836 {}
64835 64836 {}
53374 53378 {}
53751 53752 {}
53802 53803 {}
53802 56266 {}
53378 53379 {}
53378 53752 {}
53377 53378 {}
53752 53753 {}
53752 53806 {}
53380 53701 {}
53384 53385 {}
53384 53702 {}
53701 53702 {}
53383 53384 {}
53702 53703 {}
53702 53812 {}
53386 53651 {}
53652 53653 {}
53652 53818 {}
53389 53601 {}
53393 53394 {}
53393 53602 {}
53601 53602 {}
53392 53393 {}
53602 53603 {}
53602 53824 {}
53395 53551 {}
53552 53553 {}
53552 53830 {}
53398 53498 {}
53402 53403 {}
53402 53499 {}
53498 53499 {}
53401 53402 {}
53499 53500 {}
53499 53502 {}
53404 53445 {}
53444 53446 {}
53444 53888 {}
53445 53446 {}
53407 53440 {}
53407 54248 {}
53407 54250 {}
53441 53442 {}
54247 54251 {}
54249 54252 {}
53440 53442 {}
53440 53888 {}
54248 54251 {}
54250 54252 {}
53409 53429 {}
53409 53430 {}
53409 53911 {}
53428 53432 {}
53431 53433 {}
53912 53914 {}
53429 53432 {}
53430 53433 {}
53911 53913 {}
53412 53413 {}
53412 53424 {}
53413 53425 {}
53424 53426 {}
53424 53911 {}
53424 53914 {}
53425 53426 {}
53425 53912 {}
53425 53913 {}
53416 53417 {}
53416 53418 {}
53416 53421 {}
53417 53419 {}
53417 53420 {}
53422 53424 {}
53422 55185 {}
53422 55188 {}
53423 53425 {}
53423 55186 {}
53423 55187 {}
55185 55189 {}
55188 55190 {}
55186 55189 {}
55187 55190 {}
53426 53427 {}
53426 53428 {}
53426 53430 {}
53914 53915 {}
53913 53916 {}
53427 53429 {}
53427 53431 {}
53432 53434 {}
53432 53437 {}
53432 63839 {}
53433 53435 {}
53433 53436 {}
53433 63840 {}
63839 63841 {}
63839 63862 {}
63840 63841 {}
53438 53440 {}
53438 64504 {}
53439 53441 {}
53439 64505 {}
64504 64506 {}
64505 64506 {}
53442 53443 {}
53442 53445 {}
53888 53889 {}
53888 53929 {}
53443 53444 {}
53446 53447 {}
53446 53449 {}
53447 53448 {}
53450 53451 {}
53450 56357 {}
53840 53841 {}
53840 53937 {}
53451 53839 {}
56357 56358 {}
53839 53840 {}
53839 56358 {}
53454 53455 {}
53455 53460 {}
53460 53461 {}
53458 53459 {}
53459 53460 {}
53461 53472 {}
53472 53473 {}
53464 53465 {}
53465 53470 {}
53470 53471 {}
53468 53469 {}
53469 53470 {}
53471 53472 {}
53473 53496 {}
53496 53497 {}
53496 53501 {}
53476 53477 {}
53477 53482 {}
53482 53483 {}
53480 53481 {}
53481 53482 {}
53483 53494 {}
53494 53495 {}
53486 53487 {}
53487 53492 {}
53492 53493 {}
53490 53491 {}
53491 53492 {}
53493 53494 {}
53495 53496 {}
53497 53502 {}
53501 53503 {}
53501 53837 {}
53502 53503 {}
53500 53501 {}
53503 53504 {}
53503 56344 {}
53837 53838 {}
53837 53839 {}
53504 53836 {}
56344 56345 {}
53836 53837 {}
53836 56345 {}
53507 53508 {}
53508 53513 {}
53513 53514 {}
53511 53512 {}
53512 53513 {}
53514 53525 {}
53525 53526 {}
53517 53518 {}
53518 53523 {}
53523 53524 {}
53521 53522 {}
53522 53523 {}
53524 53525 {}
53526 53549 {}
53549 53550 {}
53549 53554 {}
53529 53530 {}
53530 53535 {}
53535 53536 {}
53533 53534 {}
53534 53535 {}
53536 53547 {}
53547 53548 {}
53539 53540 {}
53540 53545 {}
53545 53546 {}
53543 53544 {}
53544 53545 {}
53546 53547 {}
53548 53549 {}
53550 53830 {}
53554 53831 {}
53554 53834 {}
53830 53831 {}
53553 53554 {}
53831 53832 {}
53831 56331 {}
53834 53835 {}
53834 53836 {}
53557 53558 {}
53558 53563 {}
53563 53564 {}
53561 53562 {}
53562 53563 {}
53564 53575 {}
53575 53576 {}
53567 53568 {}
53568 53573 {}
53573 53574 {}
53571 53572 {}
53572 53573 {}
53574 53575 {}
53576 53599 {}
53599 53600 {}
53599 53604 {}
53579 53580 {}
53580 53585 {}
53585 53586 {}
53583 53584 {}
53584 53585 {}
53586 53597 {}
53597 53598 {}
53589 53590 {}
53590 53595 {}
53595 53596 {}
53593 53594 {}
53594 53595 {}
53596 53597 {}
53598 53599 {}
53600 53824 {}
53604 53825 {}
53604 53828 {}
53824 53825 {}
53603 53604 {}
53825 53826 {}
53825 56318 {}
53828 53829 {}
53828 53833 {}
53607 53608 {}
53608 53613 {}
53613 53614 {}
53611 53612 {}
53612 53613 {}
53614 53625 {}
53625 53626 {}
53617 53618 {}
53618 53623 {}
53623 53624 {}
53621 53622 {}
53622 53623 {}
53624 53625 {}
53626 53649 {}
53649 53650 {}
53649 53654 {}
53629 53630 {}
53630 53635 {}
53635 53636 {}
53633 53634 {}
53634 53635 {}
53636 53647 {}
53647 53648 {}
53639 53640 {}
53640 53645 {}
53645 53646 {}
53643 53644 {}
53644 53645 {}
53646 53647 {}
53648 53649 {}
53650 53818 {}
53654 53819 {}
53654 53822 {}
53818 53819 {}
53653 53654 {}
53819 53820 {}
53819 56305 {}
53822 53823 {}
53822 53827 {}
53657 53658 {}
53658 53663 {}
53663 53664 {}
53661 53662 {}
53662 53663 {}
53664 53675 {}
53675 53676 {}
53667 53668 {}
53668 53673 {}
53673 53674 {}
53671 53672 {}
53672 53673 {}
53674 53675 {}
53676 53699 {}
53699 53700 {}
53699 53704 {}
53679 53680 {}
53680 53685 {}
53685 53686 {}
53683 53684 {}
53684 53685 {}
53686 53697 {}
53697 53698 {}
53689 53690 {}
53690 53695 {}
53695 53696 {}
53693 53694 {}
53694 53695 {}
53696 53697 {}
53698 53699 {}
53700 53812 {}
53704 53813 {}
53704 53816 {}
53812 53813 {}
53703 53704 {}
53813 53814 {}
53813 56292 {}
53816 53817 {}
53816 53821 {}
53707 53708 {}
53708 53713 {}
53713 53714 {}
53711 53712 {}
53712 53713 {}
53714 53725 {}
53725 53726 {}
53717 53718 {}
53718 53723 {}
53723 53724 {}
53721 53722 {}
53722 53723 {}
53724 53725 {}
53726 53749 {}
53749 53750 {}
53749 53754 {}
53729 53730 {}
53730 53735 {}
53735 53736 {}
53733 53734 {}
53734 53735 {}
53736 53747 {}
53747 53748 {}
53739 53740 {}
53740 53745 {}
53745 53746 {}
53743 53744 {}
53744 53745 {}
53746 53747 {}
53748 53749 {}
53750 53806 {}
53754 53807 {}
53754 53810 {}
53806 53807 {}
53753 53754 {}
53807 53808 {}
53807 56278 {}
53810 53811 {}
53810 53815 {}
53775 53776 {}
53773 53774 {}
53789 53790 {}
53793 53794 {}
53777 53778 {}
53781 53782 {}
53765 53766 {}
53766 53795 {}
53795 53796 {}
53787 53788 {}
53774 53783 {}
53783 53784 {}
53776 53779 {}
53779 53780 {}
53778 53779 {}
53780 53785 {}
53785 53786 {}
53782 53783 {}
53784 53785 {}
53786 53799 {}
53799 53800 {}
53799 53804 {}
53788 53791 {}
53791 53792 {}
53790 53791 {}
53792 53797 {}
53797 53798 {}
53794 53795 {}
53796 53797 {}
53798 53799 {}
53800 56266 {}
53804 53805 {}
53804 56267 {}
53804 56278 {}
56266 56267 {}
53803 53804 {}
53805 53809 {}
56267 56268 {}
56267 56269 {}
56278 56279 {}
53809 53810 {}
53809 56279 {}
53808 53809 {}
56279 56280 {}
56279 56281 {}
53811 56292 {}
53815 53816 {}
53815 56293 {}
56292 56293 {}
53814 53815 {}
56293 56294 {}
56293 56295 {}
53817 56305 {}
53821 53822 {}
53821 56306 {}
56305 56306 {}
53820 53821 {}
56306 56307 {}
56306 56308 {}
53823 56318 {}
53827 53828 {}
53827 56319 {}
56318 56319 {}
53826 53827 {}
56319 56320 {}
56319 56321 {}
53829 56331 {}
53833 53834 {}
53833 56332 {}
56331 56332 {}
53832 53833 {}
56332 56333 {}
56332 56334 {}
53835 56344 {}
56345 56346 {}
56345 56347 {}
53838 56357 {}
56358 56359 {}
56358 56360 {}
53841 53938 {}
53937 53939 {}
53937 53953 {}
53938 53939 {}
53844 53845 {}
53845 53850 {}
53850 53851 {}
53848 53849 {}
53849 53850 {}
53851 53862 {}
53862 53863 {}
53854 53855 {}
53855 53860 {}
53860 53861 {}
53858 53859 {}
53859 53860 {}
53861 53862 {}
53863 53886 {}
53886 53887 {}
53886 53933 {}
53866 53867 {}
53867 53872 {}
53872 53873 {}
53870 53871 {}
53871 53872 {}
53873 53884 {}
53884 53885 {}
53876 53877 {}
53877 53882 {}
53882 53883 {}
53880 53881 {}
53881 53882 {}
53883 53884 {}
53885 53886 {}
53887 53934 {}
53933 53935 {}
53933 53953 {}
53934 53935 {}
53889 53930 {}
53929 53931 {}
53929 54001 {}
53930 53931 {}
53892 53925 {}
53892 54359 {}
53892 54361 {}
53926 53927 {}
54358 54362 {}
54360 54363 {}
53925 53927 {}
53925 54001 {}
54359 54362 {}
54361 54363 {}
53895 53896 {}
53895 53907 {}
53896 53908 {}
53907 53909 {}
53907 54006 {}
53908 53909 {}
53899 53900 {}
53899 53901 {}
53899 53904 {}
53900 53902 {}
53900 53903 {}
53905 53907 {}
53905 55272 {}
53905 55275 {}
53906 53908 {}
53906 55273 {}
53906 55274 {}
55272 55276 {}
55275 55277 {}
55273 55276 {}
55274 55277 {}
53909 53910 {}
53909 53916 {}
54006 54007 {}
54006 54026 {}
54006 54029 {}
54006 54138 {}
53910 53915 {}
53916 53917 {}
53915 53917 {}
53915 54006 {}
53917 53918 {}
53917 53919 {}
53917 53921 {}
53917 63865 {}
53918 53920 {}
53918 53922 {}
53918 63864 {}
63865 63866 {}
63864 63866 {}
63864 63897 {}
53923 53925 {}
53923 64517 {}
53924 53926 {}
53924 64518 {}
64517 64519 {}
64518 64519 {}
53927 53928 {}
53927 53930 {}
54001 54002 {}
54001 54043 {}
54001 54045 {}
54001 54156 {}
53928 53929 {}
53931 53932 {}
53931 53934 {}
53932 53933 {}
53935 53936 {}
53935 53938 {}
53953 53954 {}
53953 54052 {}
53936 53937 {}
53939 53940 {}
53939 53941 {}
53940 53942 {}
53940 65957 {}
53943 53944 {}
53943 53945 {}
53943 56369 {}
53943 63363 {}
53944 63365 {}
63363 63364 {}
63363 63366 {}
63363 63391 {}
63365 63366 {}
53950 53951 {}
53948 53949 {}
54063 54064 {}
54292 54293 {}
54520 54521 {}
54748 54749 {}
54858 54859 {}
55192 55193 {}
55279 55280 {}
55455 55456 {}
55544 55545 {}
55633 55634 {}
55720 55721 {}
56261 56262 {}
56274 56275 {}
56287 56288 {}
56300 56301 {}
56313 56314 {}
56326 56327 {}
53949 53950 {}
54065 54066 {}
53954 54053 {}
54052 54054 {}
54052 54068 {}
54053 54054 {}
53957 53958 {}
53958 53963 {}
53963 53964 {}
53961 53962 {}
53962 53963 {}
53964 53975 {}
53975 53976 {}
53967 53968 {}
53968 53973 {}
53973 53974 {}
53971 53972 {}
53972 53973 {}
53974 53975 {}
53976 53999 {}
53999 54000 {}
53999 54048 {}
53979 53980 {}
53980 53985 {}
53985 53986 {}
53983 53984 {}
53984 53985 {}
53986 53997 {}
53997 53998 {}
53989 53990 {}
53990 53995 {}
53995 53996 {}
53993 53994 {}
53994 53995 {}
53996 53997 {}
53998 53999 {}
54000 54049 {}
54048 54050 {}
54048 54068 {}
54049 54050 {}
54002 54042 {}
54002 54044 {}
54002 54155 {}
54043 54046 {}
54045 54047 {}
54156 54158 {}
54042 54046 {}
54044 54047 {}
54155 54157 {}
54005 54038 {}
54005 54474 {}
54005 54476 {}
54039 54040 {}
54039 54156 {}
54039 54157 {}
54473 54477 {}
54475 54478 {}
54038 54040 {}
54038 54155 {}
54038 54158 {}
54474 54477 {}
54476 54478 {}
54007 54027 {}
54007 54028 {}
54007 54137 {}
54026 54030 {}
54029 54031 {}
54138 54140 {}
54027 54030 {}
54028 54031 {}
54137 54139 {}
54010 54011 {}
54010 54022 {}
54011 54023 {}
54022 54024 {}
54022 54137 {}
54022 54140 {}
54023 54024 {}
54023 54138 {}
54023 54139 {}
54014 54015 {}
54014 54016 {}
54014 54019 {}
54015 54017 {}
54015 54018 {}
54020 54022 {}
54020 55361 {}
54021 54023 {}
54021 55362 {}
55361 55363 {}
55362 55363 {}
54024 54025 {}
54024 54026 {}
54024 54028 {}
54140 54141 {}
54139 54142 {}
54025 54027 {}
54025 54029 {}
54030 54032 {}
54030 54035 {}
54030 63899 {}
54031 54033 {}
54031 54034 {}
54031 63900 {}
63899 63901 {}
63899 63929 {}
63899 63932 {}
63900 63901 {}
63900 63930 {}
63900 63931 {}
54036 54038 {}
54036 64530 {}
54037 54039 {}
54037 64531 {}
64530 64532 {}
64531 64532 {}
54040 54041 {}
54040 54042 {}
54040 54045 {}
54158 54159 {}
54157 54160 {}
54041 54043 {}
54041 54044 {}
54046 54049 {}
54047 54048 {}
54050 54051 {}
54050 54053 {}
54068 54069 {}
54068 54167 {}
54051 54052 {}
54054 54055 {}
54054 54056 {}
54054 54059 {}
54055 54057 {}
54055 54058 {}
54055 65961 {}
54060 54062 {}
54060 59880 {}
54060 63386 {}
54061 63387 {}
63386 63388 {}
63386 63399 {}
63387 63388 {}
54064 54065 {}
54179 54180 {}
54069 54168 {}
54167 54169 {}
54167 54184 {}
54168 54169 {}
54072 54073 {}
54073 54078 {}
54078 54079 {}
54076 54077 {}
54077 54078 {}
54079 54090 {}
54090 54091 {}
54082 54083 {}
54083 54088 {}
54088 54089 {}
54086 54087 {}
54087 54088 {}
54089 54090 {}
54091 54114 {}
54114 54115 {}
54114 54163 {}
54094 54095 {}
54095 54100 {}
54100 54101 {}
54098 54099 {}
54099 54100 {}
54101 54112 {}
54112 54113 {}
54104 54105 {}
54105 54110 {}
54110 54111 {}
54108 54109 {}
54109 54110 {}
54111 54112 {}
54113 54114 {}
54115 54164 {}
54163 54165 {}
54163 54184 {}
54164 54165 {}
54118 54151 {}
54118 54585 {}
54118 54587 {}
54152 54153 {}
54584 54588 {}
54586 54589 {}
54151 54153 {}
54151 54232 {}
54585 54588 {}
54587 54589 {}
54121 54122 {}
54121 54133 {}
54122 54134 {}
54133 54135 {}
54133 54237 {}
54134 54135 {}
54125 54126 {}
54125 54127 {}
54125 54130 {}
54126 54128 {}
54126 54129 {}
54131 54133 {}
54131 55448 {}
54131 55450 {}
54132 54134 {}
54132 55449 {}
54132 55451 {}
55448 55452 {}
55450 55453 {}
55449 55452 {}
55451 55453 {}
54135 54136 {}
54135 54142 {}
54237 54238 {}
54237 54257 {}
54237 54260 {}
54237 54369 {}
54136 54141 {}
54142 54143 {}
54141 54143 {}
54141 54237 {}
54143 54144 {}
54143 54145 {}
54143 54147 {}
54143 63926 {}
54144 54146 {}
54144 54148 {}
54144 63925 {}
63926 63927 {}
63925 63927 {}
63925 63942 {}
54149 54151 {}
54149 64544 {}
54150 54152 {}
54150 64545 {}
64544 64546 {}
64545 64546 {}
54153 54154 {}
54153 54160 {}
54232 54233 {}
54232 54273 {}
54154 54159 {}
54160 54161 {}
54159 54161 {}
54159 54232 {}
54161 54162 {}
54161 54164 {}
54162 54163 {}
54165 54166 {}
54165 54168 {}
54184 54185 {}
54184 54281 {}
54166 54167 {}
54169 54170 {}
54169 54171 {}
54169 54173 {}
54170 54172 {}
54170 54174 {}
54170 65965 {}
54175 54177 {}
54175 60107 {}
54175 63401 {}
54176 63402 {}
63401 63403 {}
63401 63434 {}
63402 63403 {}
54181 54182 {}
54405 54406 {}
54635 54636 {}
54968 54969 {}
55080 55081 {}
55366 55367 {}
55809 55810 {}
55898 55899 {}
55987 55988 {}
56079 56080 {}
56168 56169 {}
56339 56340 {}
56352 56353 {}
56365 56366 {}
54180 54181 {}
54294 54295 {}
54185 54282 {}
54281 54283 {}
54281 54297 {}
54282 54283 {}
54188 54189 {}
54189 54194 {}
54194 54195 {}
54192 54193 {}
54193 54194 {}
54195 54206 {}
54206 54207 {}
54198 54199 {}
54199 54204 {}
54204 54205 {}
54202 54203 {}
54203 54204 {}
54205 54206 {}
54207 54230 {}
54230 54231 {}
54230 54277 {}
54210 54211 {}
54211 54216 {}
54216 54217 {}
54214 54215 {}
54215 54216 {}
54217 54228 {}
54228 54229 {}
54220 54221 {}
54221 54226 {}
54226 54227 {}
54224 54225 {}
54225 54226 {}
54227 54228 {}
54229 54230 {}
54231 54278 {}
54277 54279 {}
54277 54297 {}
54278 54279 {}
54233 54274 {}
54273 54275 {}
54273 54345 {}
54274 54275 {}
54236 54269 {}
54236 54704 {}
54236 54706 {}
54270 54271 {}
54703 54707 {}
54705 54708 {}
54269 54271 {}
54269 54345 {}
54704 54707 {}
54706 54708 {}
54238 54258 {}
54238 54259 {}
54238 54368 {}
54257 54261 {}
54260 54262 {}
54369 54371 {}
54258 54261 {}
54259 54262 {}
54368 54370 {}
54241 54242 {}
54241 54253 {}
54242 54254 {}
54253 54255 {}
54253 54368 {}
54253 54371 {}
54254 54255 {}
54254 54369 {}
54254 54370 {}
54245 54246 {}
54245 54247 {}
54245 54250 {}
54246 54248 {}
54246 54249 {}
54251 54253 {}
54251 55537 {}
54251 55540 {}
54252 54254 {}
54252 55538 {}
54252 55539 {}
55537 55541 {}
55540 55542 {}
55538 55541 {}
55539 55542 {}
54255 54256 {}
54255 54257 {}
54255 54259 {}
54371 54372 {}
54370 54373 {}
54256 54258 {}
54256 54260 {}
54261 54263 {}
54261 54266 {}
54261 63944 {}
54262 54264 {}
54262 54265 {}
54262 63945 {}
63944 63946 {}
63944 63966 {}
63945 63946 {}
54267 54269 {}
54267 64557 {}
54268 54270 {}
54268 64558 {}
64557 64559 {}
64558 64559 {}
54271 54272 {}
54271 54274 {}
54345 54346 {}
54345 54386 {}
54272 54273 {}
54275 54276 {}
54275 54278 {}
54276 54277 {}
54279 54280 {}
54279 54282 {}
54297 54298 {}
54297 54394 {}
54280 54281 {}
54283 54284 {}
54283 54285 {}
54283 54288 {}
54284 54286 {}
54284 54287 {}
54284 65969 {}
54289 54291 {}
54289 60112 {}
54289 63436 {}
54290 63437 {}
63436 63438 {}
63436 63458 {}
63437 63438 {}
54293 54294 {}
54407 54408 {}
54298 54395 {}
54394 54396 {}
54394 54410 {}
54395 54396 {}
54301 54302 {}
54302 54307 {}
54307 54308 {}
54305 54306 {}
54306 54307 {}
54308 54319 {}
54319 54320 {}
54311 54312 {}
54312 54317 {}
54317 54318 {}
54315 54316 {}
54316 54317 {}
54318 54319 {}
54320 54343 {}
54343 54344 {}
54343 54390 {}
54323 54324 {}
54324 54329 {}
54329 54330 {}
54327 54328 {}
54328 54329 {}
54330 54341 {}
54341 54342 {}
54333 54334 {}
54334 54339 {}
54339 54340 {}
54337 54338 {}
54338 54339 {}
54340 54341 {}
54342 54343 {}
54344 54391 {}
54390 54392 {}
54390 54410 {}
54391 54392 {}
54346 54387 {}
54386 54388 {}
54386 54458 {}
54387 54388 {}
54349 54382 {}
54349 54812 {}
54349 54814 {}
54383 54384 {}
54811 54815 {}
54813 54816 {}
54382 54384 {}
54382 54458 {}
54812 54815 {}
54814 54816 {}
54352 54353 {}
54352 54364 {}
54353 54365 {}
54364 54366 {}
54364 54463 {}
54365 54366 {}
54356 54357 {}
54356 54358 {}
54356 54361 {}
54357 54359 {}
54357 54360 {}
54362 54364 {}
54362 55625 {}
54362 55627 {}
54363 54365 {}
54363 55626 {}
54363 55628 {}
55625 55629 {}
55627 55630 {}
55626 55629 {}
55628 55630 {}
54366 54367 {}
54366 54373 {}
54463 54464 {}
54463 54483 {}
54463 54486 {}
54463 54595 {}
54367 54372 {}
54373 54374 {}
54372 54374 {}
54372 54463 {}
54374 54375 {}
54374 54376 {}
54374 54378 {}
54374 63969 {}
54375 54377 {}
54375 54379 {}
54375 63968 {}
63969 63970 {}
63968 63970 {}
63968 63990 {}
54380 54382 {}
54380 64570 {}
54381 54383 {}
54381 64571 {}
64570 64572 {}
64571 64572 {}
54384 54385 {}
54384 54387 {}
54458 54459 {}
54458 54500 {}
54458 54502 {}
54458 54613 {}
54385 54386 {}
54388 54389 {}
54388 54391 {}
54389 54390 {}
54392 54393 {}
54392 54395 {}
54410 54411 {}
54410 54509 {}
54393 54394 {}
54396 54397 {}
54396 54398 {}
54396 54401 {}
54397 54399 {}
54397 54400 {}
54397 65973 {}
54402 54404 {}
54402 60334 {}
54402 63460 {}
54403 63461 {}
63460 63462 {}
63460 63484 {}
63461 63462 {}
54406 54407 {}
54522 54523 {}
54411 54510 {}
54509 54511 {}
54509 54525 {}
54510 54511 {}
54414 54415 {}
54415 54420 {}
54420 54421 {}
54418 54419 {}
54419 54420 {}
54421 54432 {}
54432 54433 {}
54424 54425 {}
54425 54430 {}
54430 54431 {}
54428 54429 {}
54429 54430 {}
54431 54432 {}
54433 54456 {}
54456 54457 {}
54456 54505 {}
54436 54437 {}
54437 54442 {}
54442 54443 {}
54440 54441 {}
54441 54442 {}
54443 54454 {}
54454 54455 {}
54446 54447 {}
54447 54452 {}
54452 54453 {}
54450 54451 {}
54451 54452 {}
54453 54454 {}
54455 54456 {}
54457 54506 {}
54505 54507 {}
54505 54525 {}
54506 54507 {}
54459 54499 {}
54459 54501 {}
54459 54612 {}
54500 54503 {}
54502 54504 {}
54613 54615 {}
54499 54503 {}
54501 54504 {}
54612 54614 {}
54462 54495 {}
54462 54924 {}
54462 54926 {}
54496 54497 {}
54496 54613 {}
54496 54614 {}
54923 54927 {}
54925 54928 {}
54495 54497 {}
54495 54612 {}
54495 54615 {}
54924 54927 {}
54926 54928 {}
54464 54484 {}
54464 54485 {}
54464 54594 {}
54483 54487 {}
54486 54488 {}
54595 54597 {}
54484 54487 {}
54485 54488 {}
54594 54596 {}
54467 54468 {}
54467 54479 {}
54468 54480 {}
54479 54481 {}
54479 54594 {}
54479 54597 {}
54480 54481 {}
54480 54595 {}
54480 54596 {}
54471 54472 {}
54471 54473 {}
54471 54476 {}
54472 54474 {}
54472 54475 {}
54477 54479 {}
54477 55715 {}
54478 54480 {}
54478 55716 {}
55715 55717 {}
55716 55717 {}
54481 54482 {}
54481 54483 {}
54481 54485 {}
54597 54598 {}
54596 54599 {}
54482 54484 {}
54482 54486 {}
54487 54489 {}
54487 54492 {}
54487 63992 {}
54488 54490 {}
54488 54491 {}
54488 63993 {}
63992 63994 {}
63992 64018 {}
63992 64021 {}
63993 63994 {}
63993 64019 {}
63993 64020 {}
54493 54495 {}
54493 64583 {}
54494 54496 {}
54494 64584 {}
64583 64585 {}
64584 64585 {}
54497 54498 {}
54497 54499 {}
54497 54502 {}
54615 54616 {}
54614 54617 {}
54498 54500 {}
54498 54501 {}
54503 54506 {}
54504 54505 {}
54507 54508 {}
54507 54510 {}
54525 54526 {}
54525 54624 {}
54508 54509 {}
54511 54512 {}
54511 54513 {}
54511 54515 {}
54512 54514 {}
54512 54516 {}
54512 65977 {}
54517 54519 {}
54517 60340 {}
54517 63486 {}
54518 63487 {}
63486 63488 {}
63486 63510 {}
63487 63488 {}
54521 54522 {}
54637 54638 {}
54526 54625 {}
54624 54626 {}
54624 54640 {}
54625 54626 {}
54529 54530 {}
54530 54535 {}
54535 54536 {}
54533 54534 {}
54534 54535 {}
54536 54547 {}
54547 54548 {}
54539 54540 {}
54540 54545 {}
54545 54546 {}
54543 54544 {}
54544 54545 {}
54546 54547 {}
54548 54571 {}
54571 54572 {}
54571 54620 {}
54551 54552 {}
54552 54557 {}
54557 54558 {}
54555 54556 {}
54556 54557 {}
54558 54569 {}
54569 54570 {}
54561 54562 {}
54562 54567 {}
54567 54568 {}
54565 54566 {}
54566 54567 {}
54568 54569 {}
54570 54571 {}
54572 54621 {}
54620 54622 {}
54620 54640 {}
54621 54622 {}
54575 54608 {}
54575 55030 {}
54575 55032 {}
54609 54610 {}
55029 55033 {}
55031 55034 {}
54608 54610 {}
54608 54688 {}
55030 55033 {}
55032 55034 {}
54578 54579 {}
54578 54590 {}
54579 54591 {}
54590 54592 {}
54590 54693 {}
54591 54592 {}
54582 54583 {}
54582 54584 {}
54582 54587 {}
54583 54585 {}
54583 54586 {}
54588 54590 {}
54588 55802 {}
54588 55805 {}
54589 54591 {}
54589 55803 {}
54589 55804 {}
55802 55806 {}
55805 55807 {}
55803 55806 {}
55804 55807 {}
54592 54593 {}
54592 54599 {}
54693 54694 {}
54693 54713 {}
54693 54716 {}
54693 54822 {}
54593 54598 {}
54599 54600 {}
54598 54600 {}
54598 54693 {}
54600 54601 {}
54600 54602 {}
54600 54604 {}
54600 64015 {}
54601 54603 {}
54601 54605 {}
54601 64014 {}
64015 64016 {}
64014 64016 {}
64014 64043 {}
54606 54608 {}
54606 64596 {}
54607 54609 {}
54607 64597 {}
64596 64598 {}
64597 64598 {}
54610 54611 {}
54610 54617 {}
54688 54689 {}
54688 54729 {}
54611 54616 {}
54617 54618 {}
54616 54618 {}
54616 54688 {}
54618 54619 {}
54618 54621 {}
54619 54620 {}
54622 54623 {}
54622 54625 {}
54640 54641 {}
54640 54737 {}
54623 54624 {}
54626 54627 {}
54626 54628 {}
54626 54630 {}
54627 54629 {}
54627 54631 {}
54627 65981 {}
54632 54634 {}
54632 60566 {}
54632 63512 {}
54633 63513 {}
63512 63514 {}
63512 63525 {}
63513 63514 {}
54636 54637 {}
54750 54751 {}
54641 54738 {}
54737 54739 {}
54737 54753 {}
54738 54739 {}
54644 54645 {}
54645 54650 {}
54650 54651 {}
54648 54649 {}
54649 54650 {}
54651 54662 {}
54662 54663 {}
54654 54655 {}
54655 54660 {}
54660 54661 {}
54658 54659 {}
54659 54660 {}
54661 54662 {}
54663 54686 {}
54686 54687 {}
54686 54733 {}
54666 54667 {}
54667 54672 {}
54672 54673 {}
54670 54671 {}
54671 54672 {}
54673 54684 {}
54684 54685 {}
54676 54677 {}
54677 54682 {}
54682 54683 {}
54680 54681 {}
54681 54682 {}
54683 54684 {}
54685 54686 {}
54687 54734 {}
54733 54735 {}
54733 54753 {}
54734 54735 {}
54689 54730 {}
54729 54731 {}
54729 54801 {}
54730 54731 {}
54692 54725 {}
54692 55146 {}
54692 55148 {}
54726 54727 {}
55145 55149 {}
55147 55150 {}
54725 54727 {}
54725 54801 {}
55146 55149 {}
55148 55150 {}
54694 54714 {}
54694 54715 {}
54694 54821 {}
54713 54717 {}
54716 54718 {}
54822 54824 {}
54714 54717 {}
54715 54718 {}
54821 54823 {}
54697 54698 {}
54697 54709 {}
54698 54710 {}
54709 54711 {}
54709 54821 {}
54709 54824 {}
54710 54711 {}
54710 54822 {}
54710 54823 {}
54701 54702 {}
54701 54703 {}
54701 54706 {}
54702 54704 {}
54702 54705 {}
54707 54709 {}
54707 55891 {}
54707 55894 {}
54708 54710 {}
54708 55892 {}
54708 55893 {}
55891 55895 {}
55894 55896 {}
55892 55895 {}
55893 55896 {}
54711 54712 {}
54711 54713 {}
54711 54715 {}
54824 54825 {}
54823 54826 {}
54712 54714 {}
54712 54716 {}
54717 54719 {}
54717 54722 {}
54717 64045 {}
54718 54720 {}
54718 54721 {}
54718 64046 {}
64045 64047 {}
64045 64072 {}
64045 64075 {}
64046 64047 {}
64046 64073 {}
64046 64074 {}
54723 54725 {}
54723 64604 {}
54724 54726 {}
54724 64605 {}
64604 64606 {}
64605 64606 {}
54727 54728 {}
54727 54730 {}
54801 54802 {}
54801 54839 {}
54728 54729 {}
54731 54732 {}
54731 54734 {}
54732 54733 {}
54735 54736 {}
54735 54738 {}
54753 54754 {}
54753 54847 {}
54736 54737 {}
54739 54740 {}
54739 54741 {}
54739 54743 {}
54740 54742 {}
54740 54744 {}
54740 65985 {}
54745 54747 {}
54745 60680 {}
54745 63527 {}
54746 63528 {}
63527 63529 {}
63527 63549 {}
63528 63529 {}
54749 54750 {}
54754 54848 {}
54847 54849 {}
54847 54863 {}
54848 54849 {}
54757 54758 {}
54758 54763 {}
54763 54764 {}
54761 54762 {}
54762 54763 {}
54764 54775 {}
54775 54776 {}
54767 54768 {}
54768 54773 {}
54773 54774 {}
54771 54772 {}
54772 54773 {}
54774 54775 {}
54776 54799 {}
54799 54800 {}
54799 54843 {}
54779 54780 {}
54780 54785 {}
54785 54786 {}
54783 54784 {}
54784 54785 {}
54786 54797 {}
54797 54798 {}
54789 54790 {}
54790 54795 {}
54795 54796 {}
54793 54794 {}
54794 54795 {}
54796 54797 {}
54798 54799 {}
54800 54844 {}
54843 54845 {}
54843 54863 {}
54844 54845 {}
54802 54840 {}
54839 54841 {}
54839 54911 {}
54840 54841 {}
54805 54806 {}
54805 54817 {}
54806 54818 {}
54817 54819 {}
54817 54913 {}
54818 54819 {}
54809 54810 {}
54809 54811 {}
54809 54814 {}
54810 54812 {}
54810 54813 {}
54815 54817 {}
54815 55980 {}
54815 55982 {}
54816 54818 {}
54816 55981 {}
54816 55983 {}
55980 55984 {}
55982 55985 {}
55981 55984 {}
55983 55985 {}
54819 54820 {}
54819 54826 {}
54913 54914 {}
54913 54934 {}
54913 54935 {}
54913 55039 {}
54820 54825 {}
54826 54827 {}
54825 54827 {}
54825 54913 {}
54827 54828 {}
54827 54829 {}
54827 54831 {}
54827 64069 {}
54828 54830 {}
54828 54832 {}
54828 64068 {}
64069 64070 {}
64068 64070 {}
64068 64108 {}
54833 54835 {}
54833 64618 {}
54834 54836 {}
54834 64619 {}
64618 64620 {}
64619 64620 {}
54837 54838 {}
54837 54840 {}
54911 54912 {}
54911 54950 {}
54911 54952 {}
54911 55058 {}
54838 54839 {}
54841 54842 {}
54841 54844 {}
54842 54843 {}
54845 54846 {}
54845 54848 {}
54863 54864 {}
54863 54959 {}
54846 54847 {}
54849 54850 {}
54849 54851 {}
54849 54854 {}
54850 54852 {}
54850 54853 {}
54850 65989 {}
54855 54857 {}
54855 60792 {}
54855 63551 {}
54856 63552 {}
63551 63553 {}
63551 63585 {}
63552 63553 {}
54860 54861 {}
54859 54860 {}
54970 54971 {}
54864 54960 {}
54959 54961 {}
54959 54973 {}
54960 54961 {}
54867 54868 {}
54868 54873 {}
54873 54874 {}
54871 54872 {}
54872 54873 {}
54874 54885 {}
54885 54886 {}
54877 54878 {}
54878 54883 {}
54883 54884 {}
54881 54882 {}
54882 54883 {}
54884 54885 {}
54886 54909 {}
54909 54910 {}
54909 54955 {}
54889 54890 {}
54890 54895 {}
54895 54896 {}
54893 54894 {}
54894 54895 {}
54896 54907 {}
54907 54908 {}
54899 54900 {}
54900 54905 {}
54905 54906 {}
54903 54904 {}
54904 54905 {}
54906 54907 {}
54908 54909 {}
54910 54956 {}
54955 54957 {}
54955 54973 {}
54956 54957 {}
54912 54949 {}
54912 54951 {}
54912 55057 {}
54950 54953 {}
54952 54954 {}
55058 55060 {}
54949 54953 {}
54951 54954 {}
55057 55059 {}
54914 54933 {}
54914 54936 {}
54914 55040 {}
54934 54937 {}
54935 54938 {}
55039 55041 {}
54933 54937 {}
54936 54938 {}
55040 55042 {}
54917 54918 {}
54917 54929 {}
54918 54930 {}
54929 54931 {}
54929 55040 {}
54929 55041 {}
54930 54931 {}
54930 55039 {}
54930 55042 {}
54921 54922 {}
54921 54923 {}
54921 54926 {}
54922 54924 {}
54922 54925 {}
54927 54929 {}
54927 56074 {}
54928 54930 {}
54928 56075 {}
56074 56076 {}
56075 56076 {}
54931 54932 {}
54931 54933 {}
54931 54935 {}
55041 55043 {}
55042 55044 {}
54932 54934 {}
54932 54936 {}
54937 54939 {}
54937 54941 {}
54937 64111 {}
54938 54940 {}
54938 54942 {}
54938 64110 {}
64111 64112 {}
64111 64127 {}
64111 64130 {}
64110 64112 {}
64110 64128 {}
64110 64129 {}
54943 54945 {}
54943 64636 {}
54944 54946 {}
54944 64637 {}
64636 64638 {}
64637 64638 {}
54947 54948 {}
54947 54949 {}
54947 54952 {}
55060 55061 {}
55059 55062 {}
54948 54950 {}
54948 54951 {}
54953 54956 {}
54954 54955 {}
54957 54958 {}
54957 54960 {}
54973 54974 {}
54973 55069 {}
54958 54959 {}
54961 54962 {}
54961 54963 {}
54962 54964 {}
54962 65993 {}
54965 54966 {}
54965 54967 {}
54965 60797 {}
54965 63587 {}
54966 63588 {}
63587 63589 {}
63587 63617 {}
63587 63620 {}
63588 63589 {}
63588 63618 {}
63588 63619 {}
54969 54970 {}
54974 55070 {}
55069 55071 {}
55069 55085 {}
55070 55071 {}
54977 54978 {}
54978 54983 {}
54983 54984 {}
54981 54982 {}
54982 54983 {}
54984 54995 {}
54995 54996 {}
54987 54988 {}
54988 54993 {}
54993 54994 {}
54991 54992 {}
54992 54993 {}
54994 54995 {}
54996 55019 {}
55019 55020 {}
55019 55065 {}
54999 55000 {}
55000 55005 {}
55005 55006 {}
55003 55004 {}
55004 55005 {}
55006 55017 {}
55017 55018 {}
55009 55010 {}
55010 55015 {}
55015 55016 {}
55013 55014 {}
55014 55015 {}
55016 55017 {}
55018 55019 {}
55020 55066 {}
55065 55067 {}
55065 55085 {}
55066 55067 {}
55023 55024 {}
55023 55035 {}
55024 55036 {}
55035 55037 {}
55035 55135 {}
55036 55037 {}
55027 55028 {}
55027 55029 {}
55027 55032 {}
55028 55030 {}
55028 55031 {}
55033 55035 {}
55033 56161 {}
55033 56164 {}
55034 55036 {}
55034 56162 {}
55034 56163 {}
56161 56165 {}
56164 56166 {}
56162 56165 {}
56163 56166 {}
55037 55038 {}
55037 55044 {}
55135 55136 {}
55135 55158 {}
55135 55160 {}
55038 55043 {}
55044 55045 {}
55043 55045 {}
55043 55135 {}
55045 55046 {}
55045 55047 {}
55045 55049 {}
55045 64124 {}
55046 55048 {}
55046 55050 {}
55046 64123 {}
64124 64125 {}
64123 64125 {}
64123 64151 {}
55051 55053 {}
55051 64649 {}
55052 55054 {}
55052 64650 {}
64649 64651 {}
64650 64651 {}
55055 55056 {}
55055 55062 {}
55133 55134 {}
55133 55173 {}
55056 55061 {}
55062 55063 {}
55061 55063 {}
55061 55133 {}
55063 55064 {}
55063 55066 {}
55064 55065 {}
55067 55068 {}
55067 55070 {}
55085 55086 {}
55085 55181 {}
55068 55069 {}
55071 55072 {}
55071 55073 {}
55071 55076 {}
55072 55074 {}
55072 55075 {}
55072 65997 {}
55077 55079 {}
55077 61016 {}
55077 63613 {}
55078 63614 {}
63613 63615 {}
63613 63639 {}
63614 63615 {}
55082 55083 {}
55081 55082 {}
55194 55195 {}
55086 55182 {}
55181 55183 {}
55181 55197 {}
55182 55183 {}
55089 55090 {}
55090 55095 {}
55095 55096 {}
55093 55094 {}
55094 55095 {}
55096 55107 {}
55107 55108 {}
55099 55100 {}
55100 55105 {}
55105 55106 {}
55103 55104 {}
55104 55105 {}
55106 55107 {}
55108 55131 {}
55131 55132 {}
55131 55177 {}
55111 55112 {}
55112 55117 {}
55117 55118 {}
55115 55116 {}
55116 55117 {}
55118 55129 {}
55129 55130 {}
55121 55122 {}
55122 55127 {}
55127 55128 {}
55125 55126 {}
55126 55127 {}
55128 55129 {}
55130 55131 {}
55132 55178 {}
55177 55179 {}
55177 55197 {}
55178 55179 {}
55134 55174 {}
55173 55175 {}
55173 55245 {}
55174 55175 {}
55136 55157 {}
55136 55159 {}
55158 55161 {}
55160 55162 {}
55157 55161 {}
55159 55162 {}
55139 55140 {}
55139 55152 {}
55139 55154 {}
55140 55151 {}
55140 55153 {}
55152 55155 {}
55154 55156 {}
55151 55155 {}
55153 55156 {}
55143 55144 {}
55143 55145 {}
55143 55148 {}
55144 55146 {}
55144 55147 {}
55149 55151 {}
55149 55154 {}
55149 56254 {}
55149 56256 {}
55150 55152 {}
55150 55153 {}
55150 56255 {}
55150 56257 {}
56254 56258 {}
56256 56259 {}
56255 56258 {}
56257 56259 {}
55155 55157 {}
55155 55160 {}
55156 55158 {}
55156 55159 {}
55161 55163 {}
55161 55166 {}
55161 64154 {}
55161 64155 {}
55162 55164 {}
55162 55165 {}
55162 64153 {}
55162 64156 {}
64154 64157 {}
64155 64158 {}
64153 64157 {}
64156 64158 {}
55167 55169 {}
55167 64662 {}
55168 55170 {}
55168 64663 {}
64662 64664 {}
64663 64664 {}
55171 55172 {}
55171 55174 {}
55245 55246 {}
55245 55260 {}
55172 55173 {}
55175 55176 {}
55175 55178 {}
55176 55177 {}
55179 55180 {}
55179 55182 {}
55197 55198 {}
55197 55268 {}
55180 55181 {}
55183 55184 {}
55183 55185 {}
55183 55187 {}
55184 55186 {}
55184 55188 {}
55184 66001 {}
55189 55191 {}
55189 61128 {}
55189 63641 {}
55190 63642 {}
63641 63643 {}
63641 63652 {}
63642 63643 {}
55193 55194 {}
55281 55282 {}
55198 55269 {}
55268 55270 {}
55268 55284 {}
55269 55270 {}
55201 55202 {}
55202 55207 {}
55207 55208 {}
55205 55206 {}
55206 55207 {}
55208 55219 {}
55219 55220 {}
55211 55212 {}
55212 55217 {}
55217 55218 {}
55215 55216 {}
55216 55217 {}
55218 55219 {}
55220 55243 {}
55243 55244 {}
55243 55264 {}
55223 55224 {}
55224 55229 {}
55229 55230 {}
55227 55228 {}
55228 55229 {}
55230 55241 {}
55241 55242 {}
55233 55234 {}
55234 55239 {}
55239 55240 {}
55237 55238 {}
55238 55239 {}
55240 55241 {}
55242 55243 {}
55244 55265 {}
55264 55266 {}
55264 55284 {}
55265 55266 {}
55246 55261 {}
55260 55262 {}
55260 55332 {}
55261 55262 {}
55249 55251 {}
55249 55253 {}
55249 63363 {}
55254 55256 {}
55254 64675 {}
55255 55257 {}
55255 64676 {}
64675 64677 {}
64676 64677 {}
55258 55259 {}
55258 55261 {}
55332 55333 {}
55332 55347 {}
55332 55350 {}
55332 55433 {}
55259 55260 {}
55262 55263 {}
55262 55265 {}
55263 55264 {}
55266 55267 {}
55266 55269 {}
55284 55285 {}
55284 55357 {}
55267 55268 {}
55270 55271 {}
55270 55272 {}
55270 55274 {}
55271 55273 {}
55271 55275 {}
55271 66005 {}
55276 55278 {}
55276 61217 {}
55276 63654 {}
55277 63655 {}
55280 55281 {}
55285 55358 {}
55357 55359 {}
55357 55371 {}
55358 55359 {}
55288 55289 {}
55289 55294 {}
55294 55295 {}
55292 55293 {}
55293 55294 {}
55295 55306 {}
55306 55307 {}
55298 55299 {}
55299 55304 {}
55304 55305 {}
55302 55303 {}
55303 55304 {}
55305 55306 {}
55307 55330 {}
55330 55331 {}
55330 55353 {}
55310 55311 {}
55311 55316 {}
55316 55317 {}
55314 55315 {}
55315 55316 {}
55317 55328 {}
55328 55329 {}
55320 55321 {}
55321 55326 {}
55326 55327 {}
55324 55325 {}
55325 55326 {}
55327 55328 {}
55329 55330 {}
55331 55354 {}
55353 55355 {}
55353 55371 {}
55354 55355 {}
55333 55348 {}
55333 55349 {}
55333 55432 {}
55347 55351 {}
55350 55352 {}
55433 55435 {}
55348 55351 {}
55349 55352 {}
55432 55434 {}
55336 55338 {}
55336 55340 {}
55336 63386 {}
55341 55343 {}
55341 64683 {}
55342 55344 {}
55342 64684 {}
64683 64685 {}
64684 64685 {}
55345 55346 {}
55345 55347 {}
55345 55349 {}
55435 55436 {}
55434 55437 {}
55346 55348 {}
55346 55350 {}
55351 55353 {}
55352 55354 {}
55355 55356 {}
55355 55358 {}
55371 55372 {}
55371 55444 {}
55356 55357 {}
55359 55360 {}
55359 55361 {}
55360 55362 {}
55360 66009 {}
55363 55364 {}
55363 55365 {}
55363 61305 {}
55363 63690 {}
55364 63691 {}
55368 55369 {}
55367 55368 {}
55372 55445 {}
55444 55446 {}
55444 55460 {}
55445 55446 {}
55375 55376 {}
55376 55381 {}
55381 55382 {}
55379 55380 {}
55380 55381 {}
55382 55393 {}
55393 55394 {}
55385 55386 {}
55386 55391 {}
55391 55392 {}
55389 55390 {}
55390 55391 {}
55392 55393 {}
55394 55417 {}
55417 55418 {}
55417 55440 {}
55397 55398 {}
55398 55403 {}
55403 55404 {}
55401 55402 {}
55402 55403 {}
55404 55415 {}
55415 55416 {}
55407 55408 {}
55408 55413 {}
55413 55414 {}
55411 55412 {}
55412 55413 {}
55414 55415 {}
55416 55417 {}
55418 55441 {}
55440 55442 {}
55440 55460 {}
55441 55442 {}
55421 55423 {}
55421 55425 {}
55421 63401 {}
55426 55428 {}
55426 64701 {}
55427 55429 {}
55427 64702 {}
64701 64703 {}
64702 64703 {}
55430 55431 {}
55430 55437 {}
55508 55509 {}
55508 55523 {}
55508 55526 {}
55508 55610 {}
55431 55436 {}
55437 55438 {}
55436 55438 {}
55436 55508 {}
55438 55439 {}
55438 55441 {}
55439 55440 {}
55442 55443 {}
55442 55445 {}
55460 55461 {}
55460 55533 {}
55443 55444 {}
55446 55447 {}
55446 55448 {}
55446 55451 {}
55447 55449 {}
55447 55450 {}
55447 66013 {}
55452 55454 {}
55452 61310 {}
55452 63716 {}
55453 63717 {}
55457 55458 {}
55456 55457 {}
55461 55534 {}
55533 55535 {}
55533 55548 {}
55534 55535 {}
55464 55465 {}
55465 55470 {}
55470 55471 {}
55468 55469 {}
55469 55470 {}
55471 55482 {}
55482 55483 {}
55474 55475 {}
55475 55480 {}
55480 55481 {}
55478 55479 {}
55479 55480 {}
55481 55482 {}
55483 55506 {}
55506 55507 {}
55506 55529 {}
55486 55487 {}
55487 55492 {}
55492 55493 {}
55490 55491 {}
55491 55492 {}
55493 55504 {}
55504 55505 {}
55496 55497 {}
55497 55502 {}
55502 55503 {}
55500 55501 {}
55501 55502 {}
55503 55504 {}
55505 55506 {}
55507 55530 {}
55529 55531 {}
55529 55548 {}
55530 55531 {}
55509 55524 {}
55509 55525 {}
55509 55609 {}
55523 55527 {}
55526 55528 {}
55610 55612 {}
55524 55527 {}
55525 55528 {}
55609 55611 {}
55512 55514 {}
55512 55516 {}
55512 63436 {}
55517 55519 {}
55517 64714 {}
55518 55520 {}
55518 64715 {}
64714 64716 {}
64715 64716 {}
55521 55522 {}
55521 55523 {}
55521 55525 {}
55612 55613 {}
55611 55614 {}
55522 55524 {}
55522 55526 {}
55527 55529 {}
55528 55530 {}
55531 55532 {}
55531 55534 {}
55548 55549 {}
55548 55621 {}
55532 55533 {}
55535 55536 {}
55535 55537 {}
55535 55539 {}
55536 55538 {}
55536 55540 {}
55536 66017 {}
55541 55543 {}
55541 61400 {}
55541 63735 {}
55542 63736 {}
55546 55547 {}
55545 55546 {}
55549 55622 {}
55621 55623 {}
55621 55638 {}
55622 55623 {}
55552 55553 {}
55553 55558 {}
55558 55559 {}
55556 55557 {}
55557 55558 {}
55559 55570 {}
55570 55571 {}
55562 55563 {}
55563 55568 {}
55568 55569 {}
55566 55567 {}
55567 55568 {}
55569 55570 {}
55571 55594 {}
55594 55595 {}
55594 55617 {}
55574 55575 {}
55575 55580 {}
55580 55581 {}
55578 55579 {}
55579 55580 {}
55581 55592 {}
55592 55593 {}
55584 55585 {}
55585 55590 {}
55590 55591 {}
55588 55589 {}
55589 55590 {}
55591 55592 {}
55593 55594 {}
55595 55618 {}
55617 55619 {}
55617 55638 {}
55618 55619 {}
55598 55600 {}
55598 55602 {}
55598 63460 {}
55603 55605 {}
55603 64727 {}
55604 55606 {}
55604 64728 {}
64727 64729 {}
64728 64729 {}
55607 55608 {}
55607 55614 {}
55686 55687 {}
55686 55701 {}
55686 55704 {}
55686 55787 {}
55608 55613 {}
55614 55615 {}
55613 55615 {}
55613 55686 {}
55615 55616 {}
55615 55618 {}
55616 55617 {}
55619 55620 {}
55619 55622 {}
55638 55639 {}
55638 55711 {}
55620 55621 {}
55623 55624 {}
55623 55625 {}
55623 55628 {}
55624 55626 {}
55624 55627 {}
55624 66021 {}
55629 55631 {}
55629 61575 {}
55629 63760 {}
55630 63761 {}
55635 55636 {}
55634 55635 {}
55639 55712 {}
55711 55713 {}
55711 55725 {}
55712 55713 {}
55642 55643 {}
55643 55648 {}
55648 55649 {}
55646 55647 {}
55647 55648 {}
55649 55660 {}
55660 55661 {}
55652 55653 {}
55653 55658 {}
55658 55659 {}
55656 55657 {}
55657 55658 {}
55659 55660 {}
55661 55684 {}
55684 55685 {}
55684 55707 {}
55664 55665 {}
55665 55670 {}
55670 55671 {}
55668 55669 {}
55669 55670 {}
55671 55682 {}
55682 55683 {}
55674 55675 {}
55675 55680 {}
55680 55681 {}
55678 55679 {}
55679 55680 {}
55681 55682 {}
55683 55684 {}
55685 55708 {}
55707 55709 {}
55707 55725 {}
55708 55709 {}
55687 55702 {}
55687 55703 {}
55687 55786 {}
55701 55705 {}
55704 55706 {}
55787 55789 {}
55702 55705 {}
55703 55706 {}
55786 55788 {}
55690 55692 {}
55690 55694 {}
55690 63486 {}
55695 55697 {}
55695 64736 {}
55696 55698 {}
55696 64735 {}
64736 64737 {}
64735 64737 {}
55699 55700 {}
55699 55701 {}
55699 55703 {}
55789 55790 {}
55788 55791 {}
55700 55702 {}
55700 55704 {}
55705 55707 {}
55706 55708 {}
55709 55710 {}
55709 55712 {}
55725 55726 {}
55725 55798 {}
55710 55711 {}
55713 55714 {}
55713 55715 {}
55714 55716 {}
55714 66025 {}
55717 55718 {}
55717 55719 {}
55717 61580 {}
55717 63795 {}
55718 63796 {}
55722 55723 {}
55721 55722 {}
55726 55799 {}
55798 55800 {}
55798 55814 {}
55799 55800 {}
55729 55730 {}
55730 55735 {}
55735 55736 {}
55733 55734 {}
55734 55735 {}
55736 55747 {}
55747 55748 {}
55739 55740 {}
55740 55745 {}
55745 55746 {}
55743 55744 {}
55744 55745 {}
55746 55747 {}
55748 55771 {}
55771 55772 {}
55771 55794 {}
55751 55752 {}
55752 55757 {}
55757 55758 {}
55755 55756 {}
55756 55757 {}
55758 55769 {}
55769 55770 {}
55761 55762 {}
55762 55767 {}
55767 55768 {}
55765 55766 {}
55766 55767 {}
55768 55769 {}
55770 55771 {}
55772 55795 {}
55794 55796 {}
55794 55814 {}
55795 55796 {}
55775 55777 {}
55775 55779 {}
55775 63512 {}
55780 55782 {}
55780 64749 {}
55781 55783 {}
55781 64748 {}
64749 64750 {}
64748 64750 {}
55784 55785 {}
55784 55791 {}
55862 55863 {}
55862 55877 {}
55862 55880 {}
55862 55965 {}
55785 55790 {}
55791 55792 {}
55790 55792 {}
55790 55862 {}
55792 55793 {}
55792 55795 {}
55793 55794 {}
55796 55797 {}
55796 55799 {}
55814 55815 {}
55814 55887 {}
55797 55798 {}
55800 55801 {}
55800 55802 {}
55800 55804 {}
55801 55803 {}
55801 55805 {}
55801 66029 {}
55806 55808 {}
55806 61753 {}
55806 63808 {}
55807 63809 {}
55811 55812 {}
55810 55811 {}
55900 55901 {}
55815 55888 {}
55887 55889 {}
55887 55903 {}
55888 55889 {}
55818 55819 {}
55819 55824 {}
55824 55825 {}
55822 55823 {}
55823 55824 {}
55825 55836 {}
55836 55837 {}
55828 55829 {}
55829 55834 {}
55834 55835 {}
55832 55833 {}
55833 55834 {}
55835 55836 {}
55837 55860 {}
55860 55861 {}
55860 55883 {}
55840 55841 {}
55841 55846 {}
55846 55847 {}
55844 55845 {}
55845 55846 {}
55847 55858 {}
55858 55859 {}
55850 55851 {}
55851 55856 {}
55856 55857 {}
55854 55855 {}
55855 55856 {}
55857 55858 {}
55859 55860 {}
55861 55884 {}
55883 55885 {}
55883 55903 {}
55884 55885 {}
55863 55878 {}
55863 55879 {}
55863 55964 {}
55877 55881 {}
55880 55882 {}
55965 55967 {}
55878 55881 {}
55879 55882 {}
55964 55966 {}
55866 55868 {}
55866 55870 {}
55866 63527 {}
55871 55873 {}
55871 64768 {}
55872 55874 {}
55872 64767 {}
64768 64769 {}
64767 64769 {}
55875 55876 {}
55875 55877 {}
55875 55879 {}
55967 55968 {}
55966 55969 {}
55876 55878 {}
55876 55880 {}
55881 55883 {}
55882 55884 {}
55885 55886 {}
55885 55888 {}
55903 55904 {}
55903 55976 {}
55886 55887 {}
55889 55890 {}
55889 55891 {}
55889 55893 {}
55890 55892 {}
55890 55894 {}
55890 66033 {}
55895 55897 {}
55895 61843 {}
55895 63839 {}
55896 63840 {}
55899 55900 {}
55989 55990 {}
55904 55977 {}
55976 55978 {}
55976 55992 {}
55977 55978 {}
55907 55908 {}
55908 55913 {}
55913 55914 {}
55911 55912 {}
55912 55913 {}
55914 55925 {}
55925 55926 {}
55917 55918 {}
55918 55923 {}
55923 55924 {}
55921 55922 {}
55922 55923 {}
55924 55925 {}
55926 55949 {}
55949 55950 {}
55949 55972 {}
55929 55930 {}
55930 55935 {}
55935 55936 {}
55933 55934 {}
55934 55935 {}
55936 55947 {}
55947 55948 {}
55939 55940 {}
55940 55945 {}
55945 55946 {}
55943 55944 {}
55944 55945 {}
55946 55947 {}
55948 55949 {}
55950 55973 {}
55972 55974 {}
55972 55992 {}
55973 55974 {}
55953 55955 {}
55953 55957 {}
55953 63551 {}
55958 55960 {}
55958 64780 {}
55959 55961 {}
55959 64781 {}
64780 64782 {}
64781 64782 {}
55962 55963 {}
55962 55969 {}
56040 56041 {}
56040 56060 {}
56040 56063 {}
56040 56146 {}
55963 55968 {}
55969 55970 {}
55968 55970 {}
55968 56040 {}
55970 55971 {}
55970 55973 {}
55971 55972 {}
55974 55975 {}
55974 55977 {}
55992 55993 {}
55992 56070 {}
55975 55976 {}
55978 55979 {}
55978 55980 {}
55978 55983 {}
55979 55981 {}
55979 55982 {}
55979 66037 {}
55984 55986 {}
55984 61848 {}
55984 63864 {}
55985 63865 {}
55988 55989 {}
56081 56082 {}
55993 56071 {}
56070 56072 {}
56070 56084 {}
56071 56072 {}
55996 55997 {}
55997 56002 {}
56002 56003 {}
56000 56001 {}
56001 56002 {}
56003 56014 {}
56014 56015 {}
56006 56007 {}
56007 56012 {}
56012 56013 {}
56010 56011 {}
56011 56012 {}
56013 56014 {}
56015 56038 {}
56038 56039 {}
56038 56066 {}
56018 56019 {}
56019 56024 {}
56024 56025 {}
56022 56023 {}
56023 56024 {}
56025 56036 {}
56036 56037 {}
56028 56029 {}
56029 56034 {}
56034 56035 {}
56032 56033 {}
56033 56034 {}
56035 56036 {}
56037 56038 {}
56039 56067 {}
56066 56068 {}
56066 56084 {}
56067 56068 {}
56041 56061 {}
56041 56062 {}
56041 56145 {}
56060 56064 {}
56063 56065 {}
56146 56148 {}
56061 56064 {}
56062 56065 {}
56145 56147 {}
56043 56045 {}
56043 56046 {}
56048 56050 {}
56048 56052 {}
56048 63588 {}
56049 56051 {}
56049 56053 {}
56049 63587 {}
56054 56056 {}
56054 64793 {}
56055 56057 {}
56055 64794 {}
64793 64795 {}
64794 64795 {}
56058 56059 {}
56058 56060 {}
56058 56062 {}
56148 56149 {}
56147 56150 {}
56059 56061 {}
56059 56063 {}
56064 56066 {}
56065 56067 {}
56068 56069 {}
56068 56071 {}
56084 56085 {}
56084 56157 {}
56069 56070 {}
56072 56073 {}
56072 56074 {}
56073 56075 {}
56073 66041 {}
56076 56077 {}
56076 56078 {}
56076 62021 {}
56076 63899 {}
56077 63900 {}
56080 56081 {}
56085 56158 {}
56157 56159 {}
56157 56173 {}
56158 56159 {}
56088 56089 {}
56089 56094 {}
56094 56095 {}
56092 56093 {}
56093 56094 {}
56095 56106 {}
56106 56107 {}
56098 56099 {}
56099 56104 {}
56104 56105 {}
56102 56103 {}
56103 56104 {}
56105 56106 {}
56107 56130 {}
56130 56131 {}
56130 56153 {}
56110 56111 {}
56111 56116 {}
56116 56117 {}
56114 56115 {}
56115 56116 {}
56117 56128 {}
56128 56129 {}
56120 56121 {}
56121 56126 {}
56126 56127 {}
56124 56125 {}
56125 56126 {}
56127 56128 {}
56129 56130 {}
56131 56154 {}
56153 56155 {}
56153 56173 {}
56154 56155 {}
56134 56136 {}
56134 56138 {}
56134 63613 {}
56139 56141 {}
56139 64807 {}
56140 56142 {}
56140 64808 {}
64807 64809 {}
64808 64809 {}
56143 56144 {}
56143 56150 {}
56175 56176 {}
56175 56245 {}
56175 56247 {}
56144 56149 {}
56150 56151 {}
56149 56151 {}
56149 56175 {}
56151 56152 {}
56151 56154 {}
56152 56153 {}
56155 56156 {}
56155 56158 {}
56173 56174 {}
56173 56250 {}
56156 56157 {}
56159 56160 {}
56159 56161 {}
56159 56163 {}
56160 56162 {}
56160 56164 {}
56160 66045 {}
56165 56167 {}
56165 62111 {}
56165 63925 {}
56166 63926 {}
56170 56171 {}
56169 56170 {}
56174 56251 {}
56250 56252 {}
56251 56252 {}
56176 56244 {}
56176 56246 {}
56245 56248 {}
56247 56249 {}
56244 56248 {}
56246 56249 {}
56179 56180 {}
56180 56185 {}
56185 56186 {}
56183 56184 {}
56184 56185 {}
56186 56197 {}
56197 56198 {}
56189 56190 {}
56190 56195 {}
56195 56196 {}
56193 56194 {}
56194 56195 {}
56196 56197 {}
56198 56221 {}
56221 56222 {}
56221 56238 {}
56221 56240 {}
56201 56202 {}
56202 56207 {}
56207 56208 {}
56205 56206 {}
56206 56207 {}
56208 56219 {}
56219 56220 {}
56211 56212 {}
56212 56217 {}
56217 56218 {}
56215 56216 {}
56216 56217 {}
56218 56219 {}
56220 56221 {}
56222 56239 {}
56222 56241 {}
56238 56242 {}
56240 56243 {}
56239 56242 {}
56241 56243 {}
56225 56227 {}
56225 56229 {}
56225 63641 {}
56230 56232 {}
56230 56234 {}
56230 64821 {}
56231 56233 {}
56231 56235 {}
56231 64822 {}
64821 64823 {}
64822 64823 {}
56236 56238 {}
56236 56241 {}
56237 56239 {}
56237 56240 {}
56242 56245 {}
56242 56246 {}
56243 56244 {}
56243 56247 {}
56248 56251 {}
56249 56250 {}
56252 56253 {}
56252 56255 {}
56252 56256 {}
56252 66049 {}
56253 56254 {}
56253 56257 {}
56258 56260 {}
56258 62203 {}
56258 63944 {}
56259 63945 {}
56263 56264 {}
56262 56263 {}
56268 56270 {}
56268 65925 {}
56271 56272 {}
56271 56273 {}
56271 62208 {}
56271 63968 {}
56272 63969 {}
56276 56277 {}
56275 56276 {}
56280 56282 {}
56280 65929 {}
56283 56284 {}
56283 56285 {}
56283 62231 {}
56283 63992 {}
56284 63993 {}
56289 56290 {}
56288 56289 {}
56294 56296 {}
56294 65933 {}
56297 56298 {}
56297 56299 {}
56297 62236 {}
56297 64014 {}
56298 64015 {}
56302 56303 {}
56301 56302 {}
56315 56316 {}
56307 56309 {}
56307 65937 {}
56310 56311 {}
56310 56312 {}
56310 62258 {}
56310 64045 {}
56311 64046 {}
56314 56315 {}
56328 56329 {}
56320 56322 {}
56320 65941 {}
56323 56324 {}
56323 56325 {}
56323 62264 {}
56323 64068 {}
56324 64069 {}
56327 56328 {}
56341 56342 {}
56333 56335 {}
56333 65945 {}
56336 56337 {}
56336 56338 {}
56336 62286 {}
56336 64110 {}
56337 64111 {}
56340 56341 {}
56354 56355 {}
56346 56348 {}
56346 65949 {}
56349 56350 {}
56349 56351 {}
56349 62292 {}
56349 64123 {}
56350 64124 {}
56353 56354 {}
56367 56368 {}
56359 56361 {}
56359 65953 {}
56362 56363 {}
56362 56364 {}
56362 62306 {}
56362 64153 {}
56362 64155 {}
56363 64154 {}
56363 64156 {}
56366 56367 {}
59878 59879 {}
56371 56374 {}
56371 56386 {}
56371 56398 {}
56371 56453 {}
56374 56375 {}
56386 56387 {}
56398 56399 {}
56453 56454 {}
56372 56373 {}
56373 56374 {}
56373 56379 {}
56373 56422 {}
56373 56435 {}
56379 56380 {}
56422 56423 {}
56435 56436 {}
56375 56376 {}
56375 56807 {}
56375 56824 {}
56375 56891 {}
56375 56957 {}
56375 56990 {}
56375 57065 {}
56375 57124 {}
56375 57170 {}
56375 57235 {}
56375 57292 {}
56375 57315 {}
56375 57395 {}
56375 57428 {}
56375 57498 {}
56375 57541 {}
56375 57593 {}
56375 57644 {}
56375 57702 {}
56375 57760 {}
56375 57820 {}
56375 57874 {}
56375 57898 {}
56375 57947 {}
56375 58106 {}
56375 58351 {}
56375 58476 {}
56375 58538 {}
56375 58604 {}
56375 58672 {}
56375 58698 {}
56375 58789 {}
56382 56383 {}
56378 56379 {}
56378 56389 {}
56378 56432 {}
56378 56445 {}
56389 56390 {}
56432 56433 {}
56445 56446 {}
56380 56381 {}
56380 56771 {}
56380 56849 {}
56380 56892 {}
56380 56939 {}
56380 56994 {}
56380 57079 {}
56380 57130 {}
56380 57179 {}
56380 57203 {}
56380 57270 {}
56380 57337 {}
56380 57396 {}
56380 57422 {}
56380 57486 {}
56380 57527 {}
56380 57612 {}
56380 57645 {}
56380 57688 {}
56380 57774 {}
56380 57802 {}
56380 57841 {}
56380 57891 {}
56380 57948 {}
56380 58107 {}
56380 58359 {}
56380 58482 {}
56380 58528 {}
56380 58600 {}
56380 58658 {}
56380 58699 {}
56380 58800 {}
56383 56394 {}
56394 56395 {}
56385 56386 {}
56385 56389 {}
56385 56413 {}
56385 56425 {}
56413 56414 {}
56425 56426 {}
56387 56388 {}
56387 56797 {}
56387 56855 {}
56387 56885 {}
56387 56934 {}
56387 57025 {}
56387 57047 {}
56387 57107 {}
56387 57157 {}
56387 57224 {}
56387 57278 {}
56387 57320 {}
56387 57400 {}
56387 57441 {}
56387 57471 {}
56387 57531 {}
56387 57606 {}
56387 57657 {}
56387 57719 {}
56387 57742 {}
56387 57813 {}
56387 57869 {}
56387 57887 {}
56387 57938 {}
56387 58119 {}
56387 58349 {}
56387 58474 {}
56387 58563 {}
56387 58577 {}
56387 58657 {}
56387 58693 {}
56387 58784 {}
56392 56393 {}
56390 56391 {}
56390 56803 {}
56390 56860 {}
56390 56904 {}
56390 56949 {}
56390 57003 {}
56390 57068 {}
56390 57101 {}
56390 57148 {}
56390 57225 {}
56390 57277 {}
56390 57325 {}
56390 57389 {}
56390 57432 {}
56390 57476 {}
56390 57548 {}
56390 57583 {}
56390 57635 {}
56390 57697 {}
56390 57763 {}
56390 57792 {}
56390 57838 {}
56390 57902 {}
56390 57951 {}
56390 58097 {}
56390 58347 {}
56390 58486 {}
56390 58564 {}
56390 58592 {}
56390 58635 {}
56390 58702 {}
56390 58796 {}
56393 56394 {}
56395 56420 {}
56420 56421 {}
56397 56398 {}
56397 56403 {}
56397 56410 {}
56397 56445 {}
56403 56404 {}
56410 56411 {}
56399 56400 {}
56399 56796 {}
56399 56856 {}
56399 56903 {}
56399 56971 {}
56399 56989 {}
56399 57069 {}
56399 57134 {}
56399 57183 {}
56399 57207 {}
56399 57260 {}
56399 57321 {}
56399 57368 {}
56399 57455 {}
56399 57482 {}
56399 57563 {}
56399 57584 {}
56399 57667 {}
56399 57723 {}
56399 57764 {}
56399 57810 {}
56399 57859 {}
56399 57920 {}
56399 57952 {}
56399 58110 {}
56399 58350 {}
56399 58475 {}
56399 58550 {}
56399 58603 {}
56399 58636 {}
56399 58721 {}
56399 58797 {}
56406 56407 {}
56401 56402 {}
56402 56403 {}
56402 56413 {}
56402 56435 {}
56402 56442 {}
56442 56443 {}
56404 56405 {}
56404 56784 {}
56404 56837 {}
56404 56908 {}
56404 56961 {}
56404 57011 {}
56404 57046 {}
56404 57111 {}
56404 57173 {}
56404 57228 {}
56404 57288 {}
56404 57332 {}
56404 57390 {}
56404 57433 {}
56404 57497 {}
56404 57540 {}
56404 57594 {}
56404 57648 {}
56404 57691 {}
56404 57741 {}
56404 57788 {}
56404 57842 {}
56404 57888 {}
56404 57970 {}
56404 58111 {}
56404 58345 {}
56404 58470 {}
56404 58541 {}
56404 58588 {}
56404 58668 {}
56404 58689 {}
56404 58788 {}
56407 56418 {}
56418 56419 {}
56409 56410 {}
56409 56422 {}
56409 56425 {}
56409 56450 {}
56450 56451 {}
56411 56412 {}
56411 56770 {}
56411 56845 {}
56411 56907 {}
56411 56944 {}
56411 56999 {}
56411 57043 {}
56411 57133 {}
56411 57161 {}
56411 57202 {}
56411 57282 {}
56411 57314 {}
56411 57364 {}
56411 57423 {}
56411 57503 {}
56411 57562 {}
56411 57615 {}
56411 57670 {}
56411 57713 {}
56411 57738 {}
56411 57809 {}
56411 57837 {}
56411 57909 {}
56411 57964 {}
56411 58123 {}
56411 58352 {}
56411 58477 {}
56411 58554 {}
56411 58587 {}
56411 58661 {}
56411 58715 {}
56411 58810 {}
56416 56417 {}
56414 56415 {}
56414 56781 {}
56414 56834 {}
56414 56918 {}
56414 56945 {}
56414 56993 {}
56414 57075 {}
56414 57129 {}
56414 57158 {}
56414 57213 {}
56414 57291 {}
56414 57333 {}
56414 57374 {}
56414 57451 {}
56414 57472 {}
56414 57530 {}
56414 57616 {}
56414 57649 {}
56414 57687 {}
56414 57770 {}
56414 57824 {}
56414 57860 {}
56414 57910 {}
56414 57942 {}
56414 58101 {}
56414 58356 {}
56414 58483 {}
56414 58553 {}
56414 58614 {}
56414 58667 {}
56414 58725 {}
56414 58806 {}
56417 56418 {}
56419 56420 {}
56421 56462 {}
56462 56463 {}
56462 56766 {}
56423 56424 {}
56423 56785 {}
56423 56823 {}
56423 56896 {}
56423 56956 {}
56423 57022 {}
56423 57052 {}
56423 57123 {}
56423 57169 {}
56423 57216 {}
56423 57265 {}
56423 57336 {}
56423 57378 {}
56423 57429 {}
56423 57507 {}
56423 57558 {}
56423 57579 {}
56423 57661 {}
56423 57724 {}
56423 57769 {}
56423 57787 {}
56423 57851 {}
56423 57913 {}
56423 57959 {}
56423 58118 {}
56423 58353 {}
56423 58472 {}
56423 58559 {}
56423 58599 {}
56423 58645 {}
56423 58710 {}
56423 58778 {}
56428 56429 {}
56426 56427 {}
56426 56774 {}
56426 56838 {}
56426 56914 {}
56426 56966 {}
56426 57026 {}
56426 57057 {}
56426 57108 {}
56426 57184 {}
56426 57234 {}
56426 57255 {}
56426 57342 {}
56426 57399 {}
56426 57440 {}
56426 57481 {}
56426 57549 {}
56426 57589 {}
56426 57671 {}
56426 57698 {}
56426 57748 {}
56426 57797 {}
56426 57870 {}
56426 57924 {}
56426 57974 {}
56426 58133 {}
56426 58357 {}
56426 58484 {}
56426 58531 {}
56426 58609 {}
56426 58671 {}
56426 58692 {}
56426 58785 {}
56429 56440 {}
56440 56441 {}
56431 56432 {}
56431 56442 {}
56431 56450 {}
56431 56453 {}
56433 56434 {}
56433 56806 {}
56433 56833 {}
56433 56881 {}
56433 56935 {}
56433 57021 {}
56433 57078 {}
56433 57120 {}
56433 57152 {}
56433 57217 {}
56433 57269 {}
56433 57311 {}
56433 57385 {}
56433 57444 {}
56433 57508 {}
56433 57553 {}
56433 57602 {}
56433 57634 {}
56433 57701 {}
56433 57773 {}
56433 57823 {}
56433 57848 {}
56433 57923 {}
56433 57937 {}
56433 58096 {}
56433 58348 {}
56433 58473 {}
56433 58532 {}
56433 58578 {}
56433 58640 {}
56433 58688 {}
56433 58775 {}
56438 56439 {}
56436 56437 {}
56436 56793 {}
56436 56859 {}
56436 56913 {}
56436 56948 {}
56436 57016 {}
56436 57064 {}
56436 57098 {}
56436 57174 {}
56436 57229 {}
56436 57256 {}
56436 57324 {}
56436 57367 {}
56436 57418 {}
56436 57485 {}
56436 57537 {}
56436 57605 {}
56436 57666 {}
56436 57692 {}
56436 57759 {}
56436 57791 {}
56436 57864 {}
56436 57901 {}
56436 57969 {}
56436 58128 {}
56436 58354 {}
56436 58485 {}
56436 58542 {}
56436 58591 {}
56436 58662 {}
56436 58720 {}
56436 58807 {}
56439 56440 {}
56441 56460 {}
56460 56461 {}
56443 56444 {}
56443 56775 {}
56443 56827 {}
56443 56917 {}
56443 56938 {}
56443 57015 {}
56443 57056 {}
56443 57102 {}
56443 57162 {}
56443 57212 {}
56443 57266 {}
56443 57346 {}
56443 57373 {}
56443 57454 {}
56443 57494 {}
56443 57536 {}
56443 57611 {}
56443 57656 {}
56443 57710 {}
56443 57747 {}
56443 57819 {}
56443 57863 {}
56443 57914 {}
56443 57973 {}
56443 58100 {}
56443 58344 {}
56443 58469 {}
56443 58560 {}
56443 58581 {}
56443 58650 {}
56443 58724 {}
56443 58801 {}
56448 56449 {}
56446 56447 {}
56446 56802 {}
56446 56846 {}
56446 56886 {}
56446 56960 {}
56446 57000 {}
56446 57053 {}
56446 57119 {}
56446 57151 {}
56446 57239 {}
56446 57287 {}
56446 57343 {}
56446 57386 {}
56446 57419 {}
56446 57504 {}
56446 57552 {}
56446 57580 {}
56446 57639 {}
56446 57709 {}
56446 57752 {}
56446 57801 {}
56446 57852 {}
56446 57897 {}
56446 57941 {}
56446 58129 {}
56446 58358 {}
56446 58478 {}
56446 58549 {}
56446 58582 {}
56446 58639 {}
56446 58703 {}
56446 58811 {}
56449 56458 {}
56458 56459 {}
56451 56452 {}
56451 56780 {}
56451 56828 {}
56451 56895 {}
56451 56967 {}
56451 57012 {}
56451 57074 {}
56451 57097 {}
56451 57147 {}
56451 57238 {}
56451 57259 {}
56451 57310 {}
56451 57377 {}
56451 57450 {}
56451 57493 {}
56451 57526 {}
56451 57590 {}
56451 57660 {}
56451 57714 {}
56451 57737 {}
56451 57798 {}
56451 57873 {}
56451 57892 {}
56451 57963 {}
56451 58122 {}
56451 58355 {}
56451 58471 {}
56451 58527 {}
56451 58610 {}
56451 58649 {}
56451 58714 {}
56451 58774 {}
56456 56457 {}
56454 56455 {}
56454 56792 {}
56454 56850 {}
56454 56882 {}
56454 56970 {}
56454 57004 {}
56454 57042 {}
56454 57112 {}
56454 57180 {}
56454 57206 {}
56454 57281 {}
56454 57347 {}
56454 57363 {}
56454 57445 {}
56454 57475 {}
56454 57559 {}
56454 57601 {}
56454 57638 {}
56454 57720 {}
56454 57751 {}
56454 57814 {}
56454 57847 {}
56454 57919 {}
56454 57960 {}
56454 58132 {}
56454 58346 {}
56454 58481 {}
56454 58537 {}
56454 58613 {}
56454 58646 {}
56454 58711 {}
56454 58779 {}
56457 56458 {}
56459 56460 {}
56461 56462 {}
56463 56767 {}
56766 56768 {}
56766 58094 {}
56767 56768 {}
56465 56470 {}
56471 56472 {}
56470 56472 {}
56470 56748 {}
56468 56469 {}
56468 56470 {}
56468 60073 {}
56468 60076 {}
56469 56471 {}
56469 60074 {}
56469 60075 {}
60073 60077 {}
60076 60078 {}
60074 60077 {}
60075 60078 {}
56472 56473 {}
56472 56816 {}
56748 56749 {}
56748 56760 {}
56748 56763 {}
56748 58153 {}
56473 56747 {}
56816 56817 {}
56747 56748 {}
56747 56817 {}
56475 56481 {}
56480 56744 {}
56480 56745 {}
56480 56869 {}
56481 56743 {}
56481 56746 {}
56481 56869 {}
56478 56479 {}
56478 56481 {}
56478 59961 {}
56478 59963 {}
56479 56480 {}
56479 59960 {}
56479 59962 {}
59961 59964 {}
59963 59965 {}
59960 59964 {}
59962 59965 {}
56744 56746 {}
56745 56816 {}
56869 56870 {}
56869 56871 {}
56869 56874 {}
56743 56745 {}
56746 56747 {}
56483 56488 {}
56489 56490 {}
56488 56490 {}
56488 56741 {}
56486 56487 {}
56486 56488 {}
56486 59848 {}
56486 59851 {}
56487 56489 {}
56487 59849 {}
56487 59850 {}
59848 59852 {}
59851 59853 {}
59849 59852 {}
59850 59853 {}
56490 56491 {}
56490 56927 {}
56741 56742 {}
56741 56744 {}
56741 56872 {}
56741 56874 {}
56491 56740 {}
56927 56928 {}
56740 56741 {}
56740 56928 {}
56493 56499 {}
56498 56737 {}
56498 56738 {}
56498 56980 {}
56499 56736 {}
56499 56739 {}
56499 56980 {}
56496 56497 {}
56496 56499 {}
56496 59364 {}
56496 59366 {}
56497 56498 {}
56497 59363 {}
56497 59365 {}
59364 59367 {}
59366 59368 {}
59363 59367 {}
59365 59368 {}
56737 56739 {}
56738 56927 {}
56980 56981 {}
56980 56982 {}
56980 56984 {}
56736 56738 {}
56739 56740 {}
56502 56503 {}
56502 56506 {}
56502 59216 {}
56502 59219 {}
56503 56507 {}
56503 59217 {}
56503 59218 {}
56506 56508 {}
56506 56734 {}
59216 59220 {}
59219 59221 {}
56507 56508 {}
59217 59220 {}
59218 59221 {}
56505 56506 {}
56508 56509 {}
56508 57035 {}
56734 56735 {}
56734 56737 {}
56734 56983 {}
56734 56984 {}
56509 56733 {}
57035 57036 {}
56733 56734 {}
56733 57036 {}
56511 56517 {}
56516 56730 {}
56516 56731 {}
56516 57088 {}
56517 56729 {}
56517 56732 {}
56517 57088 {}
56514 56515 {}
56514 56517 {}
56514 59234 {}
56514 59237 {}
56515 56516 {}
56515 59235 {}
56515 59236 {}
59234 59238 {}
59237 59239 {}
59235 59238 {}
59236 59239 {}
56730 56732 {}
56731 57035 {}
57088 57089 {}
57088 57090 {}
57088 57093 {}
56729 56731 {}
56732 56733 {}
56519 56524 {}
56525 56526 {}
56524 56526 {}
56524 56727 {}
56522 56523 {}
56522 56524 {}
56522 59250 {}
56522 59253 {}
56523 56525 {}
56523 59251 {}
56523 59252 {}
59250 59254 {}
59253 59255 {}
59251 59254 {}
59252 59255 {}
56526 56527 {}
56526 57143 {}
56727 56728 {}
56727 56730 {}
56727 57091 {}
56727 57093 {}
56527 56726 {}
57143 57144 {}
56726 56727 {}
56726 57144 {}
56529 56535 {}
56534 56723 {}
56534 56724 {}
56534 57193 {}
56535 56722 {}
56535 56725 {}
56535 57193 {}
56532 56533 {}
56532 56535 {}
56532 59263 {}
56532 59266 {}
56533 56534 {}
56533 59264 {}
56533 59265 {}
59263 59267 {}
59266 59268 {}
59264 59267 {}
59265 59268 {}
56723 56725 {}
56724 57143 {}
57193 57194 {}
57193 57195 {}
57193 57197 {}
56722 56724 {}
56725 56726 {}
56537 56542 {}
56543 56544 {}
56542 56544 {}
56542 56720 {}
56540 56541 {}
56540 56542 {}
56540 59276 {}
56540 59279 {}
56541 56543 {}
56541 59277 {}
56541 59278 {}
59276 59280 {}
59279 59281 {}
59277 59280 {}
59278 59281 {}
56544 56545 {}
56544 57248 {}
56720 56721 {}
56720 56723 {}
56720 57196 {}
56720 57197 {}
56545 56719 {}
57248 57249 {}
56719 56720 {}
56719 57249 {}
56547 56553 {}
56552 56716 {}
56552 56717 {}
56552 57301 {}
56553 56715 {}
56553 56718 {}
56553 57301 {}
56550 56551 {}
56550 56553 {}
56550 59286 {}
56550 59289 {}
56551 56552 {}
56551 59287 {}
56551 59288 {}
59286 59290 {}
59289 59291 {}
59287 59290 {}
59288 59291 {}
56716 56718 {}
56717 57248 {}
57301 57302 {}
57301 57303 {}
57301 57305 {}
56715 56717 {}
56718 56719 {}
56555 56560 {}
56561 56562 {}
56560 56562 {}
56560 56713 {}
56558 56559 {}
56558 56560 {}
56558 59296 {}
56558 59299 {}
56559 56561 {}
56559 59297 {}
56559 59298 {}
59296 59300 {}
59299 59301 {}
59297 59300 {}
59298 59301 {}
56562 56563 {}
56562 57356 {}
56713 56714 {}
56713 56716 {}
56713 57304 {}
56713 57305 {}
56563 56712 {}
57356 57357 {}
56712 56713 {}
56712 57357 {}
56565 56571 {}
56570 56709 {}
56570 56710 {}
56570 57409 {}
56571 56708 {}
56571 56711 {}
56571 57409 {}
56568 56569 {}
56568 56571 {}
56568 62169 {}
56568 62172 {}
56569 56570 {}
56569 62170 {}
56569 62171 {}
62169 62173 {}
62172 62174 {}
62170 62173 {}
62171 62174 {}
56709 56711 {}
56710 57356 {}
57409 57410 {}
57409 57411 {}
57409 57413 {}
56708 56710 {}
56711 56712 {}
56573 56578 {}
56579 56580 {}
56578 56580 {}
56578 56706 {}
56576 56577 {}
56576 56578 {}
56576 62077 {}
56576 62080 {}
56577 56579 {}
56577 62078 {}
56577 62079 {}
62077 62081 {}
62080 62082 {}
62078 62081 {}
62079 62082 {}
56580 56581 {}
56580 57464 {}
56706 56707 {}
56706 56709 {}
56706 57412 {}
56706 57413 {}
56581 56705 {}
57464 57465 {}
56705 56706 {}
56705 57465 {}
56583 56589 {}
56588 56702 {}
56588 56703 {}
56588 57517 {}
56589 56701 {}
56589 56704 {}
56589 57517 {}
56586 56587 {}
56586 56589 {}
56586 61991 {}
56586 61994 {}
56587 56588 {}
56587 61992 {}
56587 61993 {}
61991 61995 {}
61994 61996 {}
61992 61995 {}
61993 61996 {}
56702 56704 {}
56703 57464 {}
57517 57518 {}
57517 57519 {}
57517 57521 {}
56701 56703 {}
56704 56705 {}
56591 56596 {}
56597 56598 {}
56596 56598 {}
56596 56699 {}
56594 56595 {}
56594 56596 {}
56594 61901 {}
56594 61904 {}
56595 56597 {}
56595 61902 {}
56595 61903 {}
61901 61905 {}
61904 61906 {}
61902 61905 {}
61903 61906 {}
56598 56599 {}
56598 57572 {}
56699 56700 {}
56699 56702 {}
56699 57520 {}
56699 57521 {}
56599 56698 {}
57572 57573 {}
56698 56699 {}
56698 57573 {}
56601 56607 {}
56606 56695 {}
56606 56696 {}
56606 57625 {}
56607 56694 {}
56607 56697 {}
56607 57625 {}
56604 56605 {}
56604 56607 {}
56604 61811 {}
56604 61814 {}
56605 56606 {}
56605 61812 {}
56605 61813 {}
61811 61815 {}
61814 61816 {}
61812 61815 {}
61813 61816 {}
56695 56697 {}
56696 57572 {}
57625 57626 {}
57625 57627 {}
57625 57629 {}
56694 56696 {}
56697 56698 {}
56609 56614 {}
56615 56616 {}
56614 56616 {}
56614 56692 {}
56612 56613 {}
56612 56614 {}
56612 61719 {}
56612 61722 {}
56613 56615 {}
56613 61720 {}
56613 61721 {}
61719 61723 {}
61722 61724 {}
61720 61723 {}
61721 61724 {}
56616 56617 {}
56616 57680 {}
56692 56693 {}
56692 56695 {}
56692 57627 {}
56692 57630 {}
56617 56691 {}
57680 57681 {}
56691 56692 {}
56691 57681 {}
56619 56624 {}
56625 56626 {}
56624 56626 {}
56624 56689 {}
56622 56623 {}
56622 56624 {}
56622 61635 {}
56622 61638 {}
56623 56625 {}
56623 61636 {}
56623 61637 {}
61635 61639 {}
61638 61640 {}
61636 61639 {}
61637 61640 {}
56626 56627 {}
56626 57733 {}
56689 56690 {}
56689 56691 {}
56627 56688 {}
57733 57734 {}
56688 56689 {}
56688 57734 {}
56629 56634 {}
56682 56683 {}
56634 56683 {}
56634 56686 {}
56632 56633 {}
56632 56634 {}
56632 61541 {}
56632 61544 {}
56633 56682 {}
56633 61542 {}
56633 61543 {}
61541 61545 {}
61544 61546 {}
61542 61545 {}
61543 61546 {}
56683 56684 {}
56683 57783 {}
56686 56687 {}
56686 56688 {}
56636 56641 {}
56642 56643 {}
56641 56643 {}
56641 56680 {}
56639 56640 {}
56639 56641 {}
56639 61455 {}
56639 61458 {}
56640 56642 {}
56640 61456 {}
56640 61457 {}
61455 61459 {}
61458 61460 {}
61456 61459 {}
61457 61460 {}
56643 56644 {}
56643 57833 {}
56680 56681 {}
56680 56685 {}
56644 56679 {}
57833 57834 {}
56679 56680 {}
56679 57834 {}
56646 56651 {}
56673 56674 {}
56651 56674 {}
56651 56677 {}
56649 56650 {}
56649 56651 {}
56649 61363 {}
56649 61366 {}
56650 56673 {}
56650 61364 {}
56650 61365 {}
61363 61367 {}
61366 61368 {}
61364 61367 {}
61365 61368 {}
56674 56675 {}
56674 57883 {}
56677 56678 {}
56677 56679 {}
56653 56658 {}
56667 56668 {}
56658 56668 {}
56658 56671 {}
56656 56657 {}
56656 56658 {}
56656 61275 {}
56656 61278 {}
56657 56667 {}
56657 61276 {}
56657 61277 {}
61275 61279 {}
61278 61280 {}
61276 61279 {}
61277 61280 {}
56668 56669 {}
56668 57933 {}
56671 56672 {}
56671 56676 {}
56660 56665 {}
57983 57984 {}
56665 56666 {}
56665 57933 {}
56665 57984 {}
56663 56664 {}
56663 56665 {}
56663 61187 {}
56663 61190 {}
56664 57983 {}
56664 61188 {}
56664 61189 {}
61187 61191 {}
61190 61192 {}
61188 61191 {}
61189 61192 {}
56666 56670 {}
57933 57934 {}
57984 57985 {}
57984 58319 {}
56670 56671 {}
56670 57934 {}
56669 56670 {}
57934 57935 {}
57934 57988 {}
56672 57883 {}
56676 56677 {}
56676 57884 {}
57883 57884 {}
56675 56676 {}
57884 57885 {}
57884 57994 {}
56678 57833 {}
57834 57835 {}
57834 58000 {}
56681 57783 {}
56685 56686 {}
56685 57784 {}
57783 57784 {}
56684 56685 {}
57784 57785 {}
57784 58006 {}
56687 57733 {}
57734 57735 {}
57734 58012 {}
56690 57680 {}
57681 57682 {}
57681 57684 {}
56693 56694 {}
56693 57628 {}
56693 57629 {}
57627 57631 {}
57630 57632 {}
57628 57631 {}
57629 57632 {}
57573 57574 {}
57573 57576 {}
56700 56701 {}
56700 57519 {}
56700 57522 {}
57520 57523 {}
57521 57524 {}
57519 57523 {}
57522 57524 {}
57465 57466 {}
57465 57468 {}
56707 56708 {}
56707 57411 {}
56707 57414 {}
57412 57415 {}
57413 57416 {}
57411 57415 {}
57414 57416 {}
57357 57358 {}
57357 57360 {}
56714 56715 {}
56714 57303 {}
56714 57306 {}
57304 57307 {}
57305 57308 {}
57303 57307 {}
57306 57308 {}
57249 57250 {}
57249 57252 {}
56721 56722 {}
56721 57195 {}
56721 57198 {}
57196 57199 {}
57197 57200 {}
57195 57199 {}
57198 57200 {}
57144 57145 {}
57144 58063 {}
56728 56729 {}
56728 57090 {}
56728 57092 {}
57091 57094 {}
57093 57095 {}
57090 57094 {}
57092 57095 {}
57036 57037 {}
57036 57039 {}
56735 56736 {}
56735 56982 {}
56735 56985 {}
56983 56986 {}
56984 56987 {}
56982 56986 {}
56985 56987 {}
56928 56929 {}
56928 56931 {}
56742 56743 {}
56742 56871 {}
56742 56873 {}
56872 56875 {}
56874 56876 {}
56871 56875 {}
56873 56876 {}
56817 56818 {}
56817 56820 {}
56749 56761 {}
56749 56762 {}
56749 58152 {}
56760 56764 {}
56763 56765 {}
58153 58155 {}
56761 56764 {}
56762 56765 {}
58152 58154 {}
56751 56757 {}
56756 56758 {}
56756 58153 {}
56756 58154 {}
56757 56758 {}
56757 58152 {}
56757 58155 {}
56754 56755 {}
56754 56757 {}
56754 60193 {}
56754 60195 {}
56755 56756 {}
56755 60192 {}
56755 60194 {}
60193 60196 {}
60195 60197 {}
60192 60196 {}
60194 60197 {}
56758 56759 {}
56758 56760 {}
56758 56762 {}
58154 58157 {}
58155 58156 {}
56759 56761 {}
56759 56763 {}
56764 56766 {}
56765 56767 {}
56768 56769 {}
56768 58999 {}
58094 58095 {}
58094 58164 {}
56769 58093 {}
58999 59000 {}
58093 58094 {}
58093 59000 {}
56772 56773 {}
56773 56778 {}
56778 56779 {}
56776 56777 {}
56777 56778 {}
56779 56790 {}
56790 56791 {}
56782 56783 {}
56783 56788 {}
56788 56789 {}
56786 56787 {}
56787 56788 {}
56789 56790 {}
56791 56814 {}
56814 56815 {}
56814 56819 {}
56794 56795 {}
56795 56800 {}
56800 56801 {}
56798 56799 {}
56799 56800 {}
56801 56812 {}
56812 56813 {}
56804 56805 {}
56805 56810 {}
56810 56811 {}
56808 56809 {}
56809 56810 {}
56811 56812 {}
56813 56814 {}
56815 56820 {}
56819 56821 {}
56819 58091 {}
56820 56821 {}
56818 56819 {}
56821 56822 {}
56821 59016 {}
58091 58092 {}
58091 58093 {}
56822 58090 {}
59016 59017 {}
58090 58091 {}
58090 59017 {}
56825 56826 {}
56826 56831 {}
56831 56832 {}
56829 56830 {}
56830 56831 {}
56832 56843 {}
56843 56844 {}
56835 56836 {}
56836 56841 {}
56841 56842 {}
56839 56840 {}
56840 56841 {}
56842 56843 {}
56844 56867 {}
56867 56868 {}
56867 56877 {}
56847 56848 {}
56848 56853 {}
56853 56854 {}
56851 56852 {}
56852 56853 {}
56854 56865 {}
56865 56866 {}
56857 56858 {}
56858 56863 {}
56863 56864 {}
56861 56862 {}
56862 56863 {}
56864 56865 {}
56866 56867 {}
56868 56878 {}
56877 56879 {}
56877 58088 {}
56878 56879 {}
56870 56872 {}
56870 56873 {}
56875 56878 {}
56876 56877 {}
56879 56880 {}
56879 59041 {}
58088 58089 {}
58088 58090 {}
56880 58087 {}
59041 59042 {}
58087 58088 {}
58087 59042 {}
56883 56884 {}
56884 56889 {}
56889 56890 {}
56887 56888 {}
56888 56889 {}
56890 56901 {}
56901 56902 {}
56893 56894 {}
56894 56899 {}
56899 56900 {}
56897 56898 {}
56898 56899 {}
56900 56901 {}
56902 56925 {}
56925 56926 {}
56925 56930 {}
56905 56906 {}
56906 56911 {}
56911 56912 {}
56909 56910 {}
56910 56911 {}
56912 56923 {}
56923 56924 {}
56915 56916 {}
56916 56921 {}
56921 56922 {}
56919 56920 {}
56920 56921 {}
56922 56923 {}
56924 56925 {}
56926 56931 {}
56930 56932 {}
56930 58085 {}
56931 56932 {}
56929 56930 {}
56932 56933 {}
56932 59058 {}
58085 58086 {}
58085 58087 {}
56933 58084 {}
59058 59059 {}
58084 58085 {}
58084 59059 {}
56936 56937 {}
56937 56942 {}
56942 56943 {}
56940 56941 {}
56941 56942 {}
56943 56954 {}
56954 56955 {}
56946 56947 {}
56947 56952 {}
56952 56953 {}
56950 56951 {}
56951 56952 {}
56953 56954 {}
56955 56978 {}
56978 56979 {}
56978 56988 {}
56958 56959 {}
56959 56964 {}
56964 56965 {}
56962 56963 {}
56963 56964 {}
56965 56976 {}
56976 56977 {}
56968 56969 {}
56969 56974 {}
56974 56975 {}
56972 56973 {}
56973 56974 {}
56975 56976 {}
56977 56978 {}
56979 58078 {}
56988 58079 {}
56988 58082 {}
58078 58079 {}
56981 56983 {}
56981 56985 {}
56986 58078 {}
56987 56988 {}
58079 58080 {}
58079 59076 {}
58082 58083 {}
58082 58084 {}
56991 56992 {}
56992 56997 {}
56997 56998 {}
56995 56996 {}
56996 56997 {}
56998 57009 {}
57009 57010 {}
57001 57002 {}
57002 57007 {}
57007 57008 {}
57005 57006 {}
57006 57007 {}
57008 57009 {}
57010 57033 {}
57033 57034 {}
57033 57038 {}
57013 57014 {}
57014 57019 {}
57019 57020 {}
57017 57018 {}
57018 57019 {}
57020 57031 {}
57031 57032 {}
57023 57024 {}
57024 57029 {}
57029 57030 {}
57027 57028 {}
57028 57029 {}
57030 57031 {}
57032 57033 {}
57034 57039 {}
57038 57040 {}
57038 58076 {}
57039 57040 {}
57037 57038 {}
57040 57041 {}
57040 59097 {}
58076 58077 {}
58076 58081 {}
57041 58075 {}
59097 59098 {}
58075 58076 {}
58075 59098 {}
57044 57045 {}
57045 57050 {}
57050 57051 {}
57048 57049 {}
57049 57050 {}
57051 57062 {}
57062 57063 {}
57054 57055 {}
57055 57060 {}
57060 57061 {}
57058 57059 {}
57059 57060 {}
57061 57062 {}
57063 57086 {}
57086 57087 {}
57086 57096 {}
57066 57067 {}
57067 57072 {}
57072 57073 {}
57070 57071 {}
57071 57072 {}
57073 57084 {}
57084 57085 {}
57076 57077 {}
57077 57082 {}
57082 57083 {}
57080 57081 {}
57081 57082 {}
57083 57084 {}
57085 57086 {}
57087 58069 {}
57096 58070 {}
57096 58073 {}
58069 58070 {}
57089 57091 {}
57089 57092 {}
57094 58069 {}
57095 57096 {}
58070 58071 {}
58070 59115 {}
58073 58074 {}
58073 58075 {}
57099 57100 {}
57100 57105 {}
57105 57106 {}
57103 57104 {}
57104 57105 {}
57106 57117 {}
57117 57118 {}
57109 57110 {}
57110 57115 {}
57115 57116 {}
57113 57114 {}
57114 57115 {}
57116 57117 {}
57118 57141 {}
57141 57142 {}
57141 57146 {}
57121 57122 {}
57122 57127 {}
57127 57128 {}
57125 57126 {}
57126 57127 {}
57128 57139 {}
57139 57140 {}
57131 57132 {}
57132 57137 {}
57137 57138 {}
57135 57136 {}
57136 57137 {}
57138 57139 {}
57140 57141 {}
57142 58063 {}
57146 58064 {}
57146 58067 {}
58063 58064 {}
57145 57146 {}
58064 58065 {}
58064 59133 {}
58067 58068 {}
58067 58072 {}
57149 57150 {}
57150 57155 {}
57155 57156 {}
57153 57154 {}
57154 57155 {}
57156 57167 {}
57167 57168 {}
57159 57160 {}
57160 57165 {}
57165 57166 {}
57163 57164 {}
57164 57165 {}
57166 57167 {}
57168 57191 {}
57191 57192 {}
57191 57201 {}
57171 57172 {}
57172 57177 {}
57177 57178 {}
57175 57176 {}
57176 57177 {}
57178 57189 {}
57189 57190 {}
57181 57182 {}
57182 57187 {}
57187 57188 {}
57185 57186 {}
57186 57187 {}
57188 57189 {}
57190 57191 {}
57192 58057 {}
57201 58058 {}
57201 58061 {}
58057 58058 {}
57194 57196 {}
57194 57198 {}
57199 58057 {}
57200 57201 {}
58058 58059 {}
58058 60622 {}
58061 58062 {}
58061 58066 {}
57204 57205 {}
57205 57210 {}
57210 57211 {}
57208 57209 {}
57209 57210 {}
57211 57222 {}
57222 57223 {}
57214 57215 {}
57215 57220 {}
57220 57221 {}
57218 57219 {}
57219 57220 {}
57221 57222 {}
57223 57246 {}
57246 57247 {}
57246 57251 {}
57226 57227 {}
57227 57232 {}
57232 57233 {}
57230 57231 {}
57231 57232 {}
57233 57244 {}
57244 57245 {}
57236 57237 {}
57237 57242 {}
57242 57243 {}
57240 57241 {}
57241 57242 {}
57243 57244 {}
57245 57246 {}
57247 57252 {}
57251 57253 {}
57251 58055 {}
57252 57253 {}
57250 57251 {}
57253 57254 {}
57253 60504 {}
58055 58056 {}
58055 58060 {}
57254 58054 {}
60504 60505 {}
58054 58055 {}
58054 60505 {}
57257 57258 {}
57258 57263 {}
57263 57264 {}
57261 57262 {}
57262 57263 {}
57264 57275 {}
57275 57276 {}
57267 57268 {}
57268 57273 {}
57273 57274 {}
57271 57272 {}
57272 57273 {}
57274 57275 {}
57276 57299 {}
57299 57300 {}
57299 57309 {}
57279 57280 {}
57280 57285 {}
57285 57286 {}
57283 57284 {}
57284 57285 {}
57286 57297 {}
57297 57298 {}
57289 57290 {}
57290 57295 {}
57295 57296 {}
57293 57294 {}
57294 57295 {}
57296 57297 {}
57298 57299 {}
57300 58048 {}
57309 58049 {}
57309 58052 {}
58048 58049 {}
57302 57304 {}
57302 57306 {}
57307 58048 {}
57308 57309 {}
58049 58050 {}
58049 60391 {}
58052 58053 {}
58052 58054 {}
57312 57313 {}
57313 57318 {}
57318 57319 {}
57316 57317 {}
57317 57318 {}
57319 57330 {}
57330 57331 {}
57322 57323 {}
57323 57328 {}
57328 57329 {}
57326 57327 {}
57327 57328 {}
57329 57330 {}
57331 57354 {}
57354 57355 {}
57354 57359 {}
57334 57335 {}
57335 57340 {}
57340 57341 {}
57338 57339 {}
57339 57340 {}
57341 57352 {}
57352 57353 {}
57344 57345 {}
57345 57350 {}
57350 57351 {}
57348 57349 {}
57349 57350 {}
57351 57352 {}
57353 57354 {}
57355 57360 {}
57359 57361 {}
57359 58046 {}
57360 57361 {}
57358 57359 {}
57361 57362 {}
57361 60276 {}
58046 58047 {}
58046 58051 {}
57362 58045 {}
60276 60277 {}
58045 58046 {}
58045 60277 {}
57365 57366 {}
57366 57371 {}
57371 57372 {}
57369 57370 {}
57370 57371 {}
57372 57383 {}
57383 57384 {}
57375 57376 {}
57376 57381 {}
57381 57382 {}
57379 57380 {}
57380 57381 {}
57382 57383 {}
57384 57407 {}
57407 57408 {}
57407 57417 {}
57387 57388 {}
57388 57393 {}
57393 57394 {}
57391 57392 {}
57392 57393 {}
57394 57405 {}
57405 57406 {}
57397 57398 {}
57398 57403 {}
57403 57404 {}
57401 57402 {}
57402 57403 {}
57404 57405 {}
57406 57407 {}
57408 58039 {}
57417 58040 {}
57417 58043 {}
58039 58040 {}
57410 57412 {}
57410 57414 {}
57415 58039 {}
57416 57417 {}
58040 58041 {}
58040 60163 {}
58043 58044 {}
58043 58045 {}
57420 57421 {}
57421 57426 {}
57426 57427 {}
57424 57425 {}
57425 57426 {}
57427 57438 {}
57438 57439 {}
57430 57431 {}
57431 57436 {}
57436 57437 {}
57434 57435 {}
57435 57436 {}
57437 57438 {}
57439 57462 {}
57462 57463 {}
57462 57467 {}
57442 57443 {}
57443 57448 {}
57448 57449 {}
57446 57447 {}
57447 57448 {}
57449 57460 {}
57460 57461 {}
57452 57453 {}
57453 57458 {}
57458 57459 {}
57456 57457 {}
57457 57458 {}
57459 57460 {}
57461 57462 {}
57463 57468 {}
57467 57469 {}
57467 58037 {}
57468 57469 {}
57466 57467 {}
57469 57470 {}
57469 60044 {}
58037 58038 {}
58037 58042 {}
57470 58036 {}
60044 60045 {}
58036 58037 {}
58036 60045 {}
57473 57474 {}
57474 57479 {}
57479 57480 {}
57477 57478 {}
57478 57479 {}
57480 57491 {}
57491 57492 {}
57483 57484 {}
57484 57489 {}
57489 57490 {}
57487 57488 {}
57488 57489 {}
57490 57491 {}
57492 57515 {}
57515 57516 {}
57515 57525 {}
57495 57496 {}
57496 57501 {}
57501 57502 {}
57499 57500 {}
57500 57501 {}
57502 57513 {}
57513 57514 {}
57505 57506 {}
57506 57511 {}
57511 57512 {}
57509 57510 {}
57510 57511 {}
57512 57513 {}
57514 57515 {}
57516 58030 {}
57525 58031 {}
57525 58034 {}
58030 58031 {}
57518 57520 {}
57518 57522 {}
57523 58030 {}
57524 57525 {}
58031 58032 {}
58031 59931 {}
58034 58035 {}
58034 58036 {}
57528 57529 {}
57529 57534 {}
57534 57535 {}
57532 57533 {}
57533 57534 {}
57535 57546 {}
57546 57547 {}
57538 57539 {}
57539 57544 {}
57544 57545 {}
57542 57543 {}
57543 57544 {}
57545 57546 {}
57547 57570 {}
57570 57571 {}
57570 57575 {}
57550 57551 {}
57551 57556 {}
57556 57557 {}
57554 57555 {}
57555 57556 {}
57557 57568 {}
57568 57569 {}
57560 57561 {}
57561 57566 {}
57566 57567 {}
57564 57565 {}
57565 57566 {}
57567 57568 {}
57569 57570 {}
57571 57576 {}
57575 57577 {}
57575 58028 {}
57576 57577 {}
57574 57575 {}
57577 57578 {}
57577 59819 {}
58028 58029 {}
58028 58033 {}
57578 58027 {}
59819 59820 {}
58027 58028 {}
58027 59820 {}
57581 57582 {}
57582 57587 {}
57587 57588 {}
57585 57586 {}
57586 57587 {}
57588 57599 {}
57599 57600 {}
57591 57592 {}
57592 57597 {}
57597 57598 {}
57595 57596 {}
57596 57597 {}
57598 57599 {}
57600 57623 {}
57623 57624 {}
57623 57633 {}
57603 57604 {}
57604 57609 {}
57609 57610 {}
57607 57608 {}
57608 57609 {}
57610 57621 {}
57621 57622 {}
57613 57614 {}
57614 57619 {}
57619 57620 {}
57617 57618 {}
57618 57619 {}
57620 57621 {}
57622 57623 {}
57624 58021 {}
57633 58022 {}
57633 58025 {}
58021 58022 {}
57626 57628 {}
57626 57630 {}
57631 57633 {}
57632 58021 {}
58022 58023 {}
58022 59334 {}
58025 58026 {}
58025 58027 {}
57636 57637 {}
57637 57642 {}
57642 57643 {}
57640 57641 {}
57641 57642 {}
57643 57654 {}
57654 57655 {}
57646 57647 {}
57647 57652 {}
57652 57653 {}
57650 57651 {}
57651 57652 {}
57653 57654 {}
57655 57678 {}
57678 57679 {}
57678 57683 {}
57658 57659 {}
57659 57664 {}
57664 57665 {}
57662 57663 {}
57663 57664 {}
57665 57676 {}
57676 57677 {}
57668 57669 {}
57669 57674 {}
57674 57675 {}
57672 57673 {}
57673 57674 {}
57675 57676 {}
57677 57678 {}
57679 57684 {}
57683 57685 {}
57683 58019 {}
57684 57685 {}
57682 57683 {}
57685 57686 {}
57685 58272 {}
58019 58020 {}
58019 58024 {}
57686 58018 {}
58272 58273 {}
58018 58019 {}
58018 58273 {}
57689 57690 {}
57690 57695 {}
57695 57696 {}
57693 57694 {}
57694 57695 {}
57696 57707 {}
57707 57708 {}
57699 57700 {}
57700 57705 {}
57705 57706 {}
57703 57704 {}
57704 57705 {}
57706 57707 {}
57708 57731 {}
57731 57732 {}
57731 57736 {}
57711 57712 {}
57712 57717 {}
57717 57718 {}
57715 57716 {}
57716 57717 {}
57718 57729 {}
57729 57730 {}
57721 57722 {}
57722 57727 {}
57727 57728 {}
57725 57726 {}
57726 57727 {}
57728 57729 {}
57730 57731 {}
57732 58012 {}
57736 58013 {}
57736 58016 {}
58012 58013 {}
57735 57736 {}
58013 58014 {}
58013 59223 {}
58016 58017 {}
58016 58018 {}
57739 57740 {}
57740 57745 {}
57745 57746 {}
57743 57744 {}
57744 57745 {}
57746 57757 {}
57757 57758 {}
57749 57750 {}
57750 57755 {}
57755 57756 {}
57753 57754 {}
57754 57755 {}
57756 57757 {}
57758 57781 {}
57781 57782 {}
57781 57786 {}
57761 57762 {}
57762 57767 {}
57767 57768 {}
57765 57766 {}
57766 57767 {}
57768 57779 {}
57779 57780 {}
57771 57772 {}
57772 57777 {}
57777 57778 {}
57775 57776 {}
57776 57777 {}
57778 57779 {}
57780 57781 {}
57782 58006 {}
57786 58007 {}
57786 58010 {}
58006 58007 {}
57785 57786 {}
58007 58008 {}
58007 59244 {}
58010 58011 {}
58010 58015 {}
57789 57790 {}
57790 57795 {}
57795 57796 {}
57793 57794 {}
57794 57795 {}
57796 57807 {}
57807 57808 {}
57799 57800 {}
57800 57805 {}
57805 57806 {}
57803 57804 {}
57804 57805 {}
57806 57807 {}
57808 57831 {}
57831 57832 {}
57831 57836 {}
57811 57812 {}
57812 57817 {}
57817 57818 {}
57815 57816 {}
57816 57817 {}
57818 57829 {}
57829 57830 {}
57821 57822 {}
57822 57827 {}
57827 57828 {}
57825 57826 {}
57826 57827 {}
57828 57829 {}
57830 57831 {}
57832 58000 {}
57836 58001 {}
57836 58004 {}
58000 58001 {}
57835 57836 {}
58001 58002 {}
58001 59257 {}
58004 58005 {}
58004 58009 {}
57839 57840 {}
57840 57845 {}
57845 57846 {}
57843 57844 {}
57844 57845 {}
57846 57857 {}
57857 57858 {}
57849 57850 {}
57850 57855 {}
57855 57856 {}
57853 57854 {}
57854 57855 {}
57856 57857 {}
57858 57881 {}
57881 57882 {}
57881 57886 {}
57861 57862 {}
57862 57867 {}
57867 57868 {}
57865 57866 {}
57866 57867 {}
57868 57879 {}
57879 57880 {}
57871 57872 {}
57872 57877 {}
57877 57878 {}
57875 57876 {}
57876 57877 {}
57878 57879 {}
57880 57881 {}
57882 57994 {}
57886 57995 {}
57886 57998 {}
57994 57995 {}
57885 57886 {}
57995 57996 {}
57995 58279 {}
57998 57999 {}
57998 58003 {}
57889 57890 {}
57890 57895 {}
57895 57896 {}
57893 57894 {}
57894 57895 {}
57896 57907 {}
57907 57908 {}
57899 57900 {}
57900 57905 {}
57905 57906 {}
57903 57904 {}
57904 57905 {}
57906 57907 {}
57908 57931 {}
57931 57932 {}
57931 57936 {}
57911 57912 {}
57912 57917 {}
57917 57918 {}
57915 57916 {}
57916 57917 {}
57918 57929 {}
57929 57930 {}
57921 57922 {}
57922 57927 {}
57927 57928 {}
57925 57926 {}
57926 57927 {}
57928 57929 {}
57930 57931 {}
57932 57988 {}
57936 57989 {}
57936 57992 {}
57988 57989 {}
57935 57936 {}
57989 57990 {}
57989 58300 {}
57992 57993 {}
57992 57997 {}
57939 57940 {}
57940 57945 {}
57945 57946 {}
57943 57944 {}
57944 57945 {}
57946 57957 {}
57957 57958 {}
57949 57950 {}
57950 57955 {}
57955 57956 {}
57953 57954 {}
57954 57955 {}
57956 57957 {}
57958 57981 {}
57981 57982 {}
57981 57986 {}
57961 57962 {}
57962 57967 {}
57967 57968 {}
57965 57966 {}
57966 57967 {}
57968 57979 {}
57979 57980 {}
57971 57972 {}
57972 57977 {}
57977 57978 {}
57975 57976 {}
57976 57977 {}
57978 57979 {}
57980 57981 {}
57982 58319 {}
57986 57987 {}
57986 58300 {}
57986 58320 {}
58319 58320 {}
57985 57986 {}
57987 57991 {}
58300 58301 {}
58320 58321 {}
58320 58327 {}
58320 58328 {}
58320 59730 {}
57991 57992 {}
57991 58301 {}
57990 57991 {}
58301 58302 {}
58301 58307 {}
58301 58309 {}
58301 59304 {}
57993 58279 {}
57997 57998 {}
57997 58280 {}
58279 58280 {}
57996 57997 {}
58280 58281 {}
58280 58286 {}
58280 58288 {}
58280 59310 {}
57999 59257 {}
58003 58004 {}
58003 59258 {}
59257 59258 {}
58002 58003 {}
59258 59259 {}
59258 59270 {}
59258 59347 {}
59258 59349 {}
58005 59244 {}
58009 58010 {}
58009 59245 {}
59244 59245 {}
58008 58009 {}
59245 59246 {}
59245 59319 {}
59245 59830 {}
59245 59832 {}
58011 59223 {}
58015 58016 {}
58015 59224 {}
59223 59224 {}
58014 58015 {}
59224 59225 {}
59224 59241 {}
59224 59944 {}
59224 59946 {}
58017 58272 {}
58273 58274 {}
58273 59328 {}
58273 60055 {}
58273 60057 {}
58020 59334 {}
58024 58025 {}
58024 59335 {}
59334 59335 {}
58023 58024 {}
59335 59336 {}
59335 59370 {}
59335 60176 {}
59335 60178 {}
58026 59819 {}
59820 59821 {}
59820 59855 {}
59820 60287 {}
59820 60289 {}
58029 59931 {}
58033 58034 {}
58033 59932 {}
59931 59932 {}
58032 58033 {}
59932 59933 {}
59932 59967 {}
59932 60404 {}
59932 60406 {}
58035 60044 {}
60045 60046 {}
60045 60080 {}
60045 60515 {}
60045 60517 {}
58038 60163 {}
58042 58043 {}
58042 60164 {}
60163 60164 {}
58041 58042 {}
60164 60165 {}
60164 60199 {}
60164 60635 {}
60164 60637 {}
58044 60276 {}
60277 60278 {}
60277 60312 {}
60277 60744 {}
60277 60746 {}
58047 60391 {}
58051 58052 {}
58051 60392 {}
60391 60392 {}
58050 58051 {}
60392 60393 {}
60392 60427 {}
60392 60858 {}
60392 60860 {}
58053 60504 {}
60505 60506 {}
60505 60540 {}
60505 60964 {}
60505 60966 {}
58056 60622 {}
58060 58061 {}
58060 60623 {}
60622 60623 {}
58059 58060 {}
60623 60624 {}
60623 60658 {}
60623 61081 {}
60623 61083 {}
58062 59133 {}
58066 58067 {}
58066 59134 {}
59133 59134 {}
58065 58066 {}
59134 59135 {}
59134 59140 {}
59134 59142 {}
59134 60769 {}
58068 59115 {}
58072 58073 {}
58072 59116 {}
59115 59116 {}
58071 58072 {}
59116 59117 {}
59116 59122 {}
59116 59124 {}
59116 60881 {}
58074 59097 {}
59098 59099 {}
59098 59104 {}
59098 59106 {}
59098 60989 {}
58077 59076 {}
58081 58082 {}
58081 59077 {}
59076 59077 {}
58080 58081 {}
59077 59078 {}
59077 59083 {}
59077 59085 {}
59077 61106 {}
58083 59058 {}
59059 59060 {}
59059 59065 {}
59059 59067 {}
59059 61194 {}
58086 59041 {}
59042 59043 {}
59042 59044 {}
59042 59046 {}
59042 61282 {}
58089 59016 {}
59017 59018 {}
59017 59023 {}
59017 59025 {}
59017 61370 {}
58092 58999 {}
59000 59001 {}
59000 59002 {}
59000 59004 {}
59000 61462 {}
58095 58165 {}
58164 58166 {}
58164 58743 {}
58165 58166 {}
58098 58099 {}
58099 58104 {}
58104 58105 {}
58102 58103 {}
58103 58104 {}
58105 58116 {}
58116 58117 {}
58108 58109 {}
58109 58114 {}
58114 58115 {}
58112 58113 {}
58113 58114 {}
58115 58116 {}
58117 58140 {}
58140 58141 {}
58140 58160 {}
58120 58121 {}
58121 58126 {}
58126 58127 {}
58124 58125 {}
58125 58126 {}
58127 58138 {}
58138 58139 {}
58130 58131 {}
58131 58136 {}
58136 58137 {}
58134 58135 {}
58135 58136 {}
58137 58138 {}
58139 58140 {}
58141 58161 {}
58160 58162 {}
58160 58743 {}
58161 58162 {}
58143 58148 {}
58149 58150 {}
58148 58150 {}
58148 58444 {}
58146 58147 {}
58146 58148 {}
58146 60305 {}
58146 60308 {}
58147 58149 {}
58147 60306 {}
58147 60307 {}
60305 60309 {}
60308 60310 {}
60306 60309 {}
60307 60310 {}
58150 58151 {}
58150 58157 {}
58444 58445 {}
58444 58447 {}
58444 58737 {}
58444 58739 {}
58151 58156 {}
58157 58158 {}
58156 58158 {}
58156 58444 {}
58158 58159 {}
58158 58161 {}
58159 58160 {}
58162 58163 {}
58162 58165 {}
58743 58744 {}
58743 58748 {}
58163 58164 {}
58166 58167 {}
58166 58172 {}
58166 58174 {}
58166 61548 {}
58167 58173 {}
58167 58175 {}
58167 61547 {}
58172 58176 {}
58174 58177 {}
61548 61549 {}
58173 58176 {}
58175 58177 {}
61547 61549 {}
61547 61630 {}
58170 58171 {}
58170 58172 {}
58170 58175 {}
58171 58173 {}
58171 58174 {}
58176 58990 {}
58176 59870 {}
58177 59178 {}
58177 59871 {}
58990 59179 {}
58990 59182 {}
59870 59872 {}
59178 59179 {}
59871 59872 {}
58179 58182 {}
58179 58235 {}
58179 58240 {}
58179 58261 {}
58182 58183 {}
58235 58236 {}
58240 58241 {}
58261 58262 {}
58181 58182 {}
58181 58187 {}
58181 58201 {}
58181 58253 {}
58187 58188 {}
58201 58202 {}
58253 58254 {}
58183 58184 {}
58183 59385 {}
58183 59467 {}
58183 59498 {}
58183 59544 {}
58183 59584 {}
58183 59656 {}
58183 59710 {}
58183 59771 {}
58183 59906 {}
58183 59998 {}
58183 60147 {}
58183 60254 {}
58183 60354 {}
58183 60463 {}
58183 60574 {}
58183 60710 {}
58183 60800 {}
58183 60910 {}
58183 61049 {}
58183 61162 {}
58183 61224 {}
58183 61341 {}
58183 61437 {}
58183 61492 {}
58183 61610 {}
58183 61706 {}
58183 61765 {}
58183 61857 {}
58183 61950 {}
58183 62060 {}
58183 62152 {}
58190 58191 {}
58186 58187 {}
58186 58213 {}
58186 58220 {}
58186 58223 {}
58213 58214 {}
58220 58221 {}
58223 58224 {}
58188 58189 {}
58188 59382 {}
58188 59448 {}
58188 59484 {}
58188 59561 {}
58188 59607 {}
58188 59671 {}
58188 59707 {}
58188 59794 {}
58188 59905 {}
58188 60020 {}
58188 60120 {}
58188 60251 {}
58188 60365 {}
58188 60495 {}
58188 60589 {}
58188 60724 {}
58188 60804 {}
58188 60932 {}
58188 61046 {}
58188 61159 {}
58188 61257 {}
58188 61346 {}
58188 61418 {}
58188 61525 {}
58188 61594 {}
58188 61674 {}
58188 61787 {}
58188 61885 {}
58188 61941 {}
58188 62043 {}
58188 62143 {}
58191 58206 {}
58206 58207 {}
58192 58193 {}
58193 58196 {}
58193 58210 {}
58193 58253 {}
58193 58258 {}
58196 58197 {}
58210 58211 {}
58258 58259 {}
58194 58195 {}
58195 58196 {}
58195 58223 {}
58195 58250 {}
58195 58261 {}
58250 58251 {}
58197 58198 {}
58197 59413 {}
58197 59434 {}
58197 59506 {}
58197 59535 {}
58197 59595 {}
58197 59639 {}
58197 59698 {}
58197 59797 {}
58197 59898 {}
58197 60030 {}
58197 60137 {}
58197 60242 {}
58197 60370 {}
58197 60473 {}
58197 60578 {}
58197 60692 {}
58197 60832 {}
58197 60942 {}
58197 61050 {}
58197 61163 {}
58197 61256 {}
58197 61337 {}
58197 61404 {}
58197 61524 {}
58197 61606 {}
58197 61692 {}
58197 61775 {}
58197 61863 {}
58197 61940 {}
58197 62039 {}
58197 62120 {}
58204 58205 {}
58200 58201 {}
58200 58232 {}
58200 58243 {}
58200 58250 {}
58232 58233 {}
58243 58244 {}
58202 58203 {}
58202 59396 {}
58202 59439 {}
58202 59485 {}
58202 59560 {}
58202 59620 {}
58202 59670 {}
58202 59699 {}
58202 59782 {}
58202 59887 {}
58202 60003 {}
58202 60151 {}
58202 60243 {}
58202 60344 {}
58202 60481 {}
58202 60601 {}
58202 60714 {}
58202 60827 {}
58202 60911 {}
58202 61038 {}
58202 61141 {}
58202 61225 {}
58202 61350 {}
58202 61409 {}
58202 61514 {}
58202 61595 {}
58202 61696 {}
58202 61770 {}
58202 61852 {}
58202 61972 {}
58202 62051 {}
58202 62146 {}
58205 58206 {}
58207 58230 {}
58230 58231 {}
58209 58210 {}
58209 58213 {}
58209 58235 {}
58209 58243 {}
58211 58212 {}
58211 59417 {}
58211 59435 {}
58211 59495 {}
58211 59539 {}
58211 59594 {}
58211 59657 {}
58211 59689 {}
58211 59775 {}
58211 59910 {}
58211 60008 {}
58211 60141 {}
58211 60264 {}
58211 60376 {}
58211 60490 {}
58211 60575 {}
58211 60720 {}
58211 60810 {}
58211 60920 {}
58211 61023 {}
58211 61136 {}
58211 61234 {}
58211 61314 {}
58211 61405 {}
58211 61502 {}
58211 61598 {}
58211 61693 {}
58211 61783 {}
58211 61875 {}
58211 61945 {}
58211 62029 {}
58211 62121 {}
58216 58217 {}
58214 58215 {}
58214 59418 {}
58214 59471 {}
58214 59499 {}
58214 59538 {}
58214 59617 {}
58214 59638 {}
58214 59711 {}
58214 59808 {}
58214 59920 {}
58214 59999 {}
58214 60116 {}
58214 60265 {}
58214 60348 {}
58214 60485 {}
58214 60597 {}
58214 60711 {}
58214 60823 {}
58214 60943 {}
58214 61028 {}
58214 61169 {}
58214 61238 {}
58214 61336 {}
58214 61441 {}
58214 61515 {}
58214 61621 {}
58214 61697 {}
58214 61764 {}
58214 61879 {}
58214 61977 {}
58214 62028 {}
58214 62125 {}
58217 58228 {}
58228 58229 {}
58219 58220 {}
58219 58232 {}
58219 58240 {}
58219 58258 {}
58221 58222 {}
58221 59386 {}
58221 59444 {}
58221 59488 {}
58221 59567 {}
58221 59598 {}
58221 59635 {}
58221 59720 {}
58221 59793 {}
58221 59919 {}
58221 60021 {}
58221 60138 {}
58221 60232 {}
58221 60353 {}
58221 60494 {}
58221 60585 {}
58221 60689 {}
58221 60836 {}
58221 60933 {}
58221 61037 {}
58221 61150 {}
58221 61260 {}
58221 61319 {}
58221 61414 {}
58221 61518 {}
58221 61589 {}
58221 61671 {}
58221 61786 {}
58221 61862 {}
58221 61954 {}
58221 62042 {}
58221 62142 {}
58226 58227 {}
58224 58225 {}
58224 59392 {}
58224 59445 {}
58224 59521 {}
58224 59571 {}
58224 59610 {}
58224 59645 {}
58224 59688 {}
58224 59785 {}
58224 59897 {}
58224 60035 {}
58224 60115 {}
58224 60255 {}
58224 60366 {}
58224 60468 {}
58224 60607 {}
58224 60693 {}
58224 60805 {}
58224 60924 {}
58224 61027 {}
58224 61146 {}
58224 61239 {}
58224 61351 {}
58224 61415 {}
58224 61519 {}
58224 61599 {}
58224 61675 {}
58224 61782 {}
58224 61889 {}
58224 61963 {}
58224 62032 {}
58224 62156 {}
58227 58228 {}
58229 58230 {}
58231 58270 {}
58270 58271 {}
58270 59377 {}
58233 58234 {}
58233 59381 {}
58233 59438 {}
58233 59494 {}
58233 59570 {}
58233 59606 {}
58233 59666 {}
58233 59694 {}
58233 59807 {}
58233 59894 {}
58233 60012 {}
58233 60142 {}
58233 60238 {}
58233 60379 {}
58233 60484 {}
58233 60600 {}
58233 60699 {}
58233 60833 {}
58233 60947 {}
58233 61033 {}
58233 61151 {}
58233 61229 {}
58233 61325 {}
58233 61408 {}
58233 61528 {}
58233 61588 {}
58233 61685 {}
58233 61771 {}
58233 61867 {}
58233 61973 {}
58233 62055 {}
58233 62124 {}
58238 58239 {}
58236 58237 {}
58236 59414 {}
58236 59457 {}
58236 59507 {}
58236 59556 {}
58236 59621 {}
58236 59634 {}
58236 59717 {}
58236 59781 {}
58236 59909 {}
58236 60025 {}
58236 60148 {}
58236 60261 {}
58236 60369 {}
58236 60472 {}
58236 60579 {}
58236 60688 {}
58236 60801 {}
58236 60937 {}
58236 61060 {}
58236 61173 {}
58236 61228 {}
58236 61318 {}
58236 61427 {}
58236 61493 {}
58236 61584 {}
58236 61684 {}
58236 61793 {}
58236 61888 {}
58236 61976 {}
58236 62050 {}
58236 62130 {}
58239 58248 {}
58248 58249 {}
58241 58242 {}
58241 59395 {}
58241 59460 {}
58241 59517 {}
58241 59548 {}
58241 59589 {}
58241 59648 {}
58241 59695 {}
58241 59776 {}
58241 59883 {}
58241 60024 {}
58241 60130 {}
58241 60239 {}
58241 60343 {}
58241 60458 {}
58241 60596 {}
58241 60702 {}
58241 60814 {}
58241 60936 {}
58241 61059 {}
58241 61172 {}
58241 61250 {}
58241 61328 {}
58241 61430 {}
58241 61506 {}
58241 61616 {}
58241 61670 {}
58241 61796 {}
58241 61866 {}
58241 61944 {}
58241 62064 {}
58241 62153 {}
58246 58247 {}
58244 58245 {}
58244 59391 {}
58244 59470 {}
58244 59516 {}
58244 59566 {}
58244 59616 {}
58244 59660 {}
58244 59685 {}
58244 59772 {}
58244 59893 {}
58244 60013 {}
58244 60119 {}
58244 60229 {}
58244 60380 {}
58244 60462 {}
58244 60588 {}
58244 60725 {}
58244 60826 {}
58244 60915 {}
58244 61034 {}
58244 61140 {}
58244 61247 {}
58244 61347 {}
58244 61440 {}
58244 61529 {}
58244 61611 {}
58244 61703 {}
58244 61792 {}
58244 61878 {}
58244 61966 {}
58244 62054 {}
58244 62157 {}
58247 58248 {}
58249 58268 {}
58268 58269 {}
58251 58252 {}
58251 59408 {}
58251 59461 {}
58251 59489 {}
58251 59534 {}
58251 59588 {}
58251 59667 {}
58251 59721 {}
58251 59786 {}
58251 59915 {}
58251 60031 {}
58251 60125 {}
58251 60250 {}
58251 60358 {}
58251 60480 {}
58251 60611 {}
58251 60715 {}
58251 60837 {}
58251 60925 {}
58251 61056 {}
58251 61147 {}
58251 61261 {}
58251 61340 {}
58251 61431 {}
58251 61497 {}
58251 61607 {}
58251 61681 {}
58251 61760 {}
58251 61856 {}
58251 61955 {}
58251 62033 {}
58251 62134 {}
58256 58257 {}
58254 58255 {}
58254 59403 {}
58254 59449 {}
58254 59510 {}
58254 59557 {}
58254 59599 {}
58254 59661 {}
58254 59706 {}
58254 59798 {}
58254 59888 {}
58254 60009 {}
58254 60126 {}
58254 60233 {}
58254 60347 {}
58254 60459 {}
58254 60606 {}
58254 60721 {}
58254 60811 {}
58254 60921 {}
58254 61024 {}
58254 61137 {}
58254 61235 {}
58254 61315 {}
58254 61419 {}
58254 61503 {}
58254 61617 {}
58254 61707 {}
58254 61761 {}
58254 61853 {}
58254 61962 {}
58254 62038 {}
58254 62135 {}
58257 58266 {}
58266 58267 {}
58259 58260 {}
58259 59404 {}
58259 59456 {}
58259 59520 {}
58259 59545 {}
58259 59611 {}
58259 59649 {}
58259 59684 {}
58259 59803 {}
58259 59916 {}
58259 60002 {}
58259 60152 {}
58259 60228 {}
58259 60375 {}
58259 60469 {}
58259 60610 {}
58259 60703 {}
58259 60815 {}
58259 60914 {}
58259 61045 {}
58259 61158 {}
58259 61251 {}
58259 61329 {}
58259 61426 {}
58259 61507 {}
58259 61585 {}
58259 61702 {}
58259 61797 {}
58259 61874 {}
58259 61951 {}
58259 62065 {}
58259 62131 {}
58264 58265 {}
58262 58263 {}
58262 59407 {}
58262 59466 {}
58262 59511 {}
58262 59549 {}
58262 59585 {}
58262 59644 {}
58262 59716 {}
58262 59804 {}
58262 59884 {}
58262 60034 {}
58262 60129 {}
58262 60260 {}
58262 60357 {}
58262 60491 {}
58262 60584 {}
58262 60698 {}
58262 60822 {}
58262 60946 {}
58262 61055 {}
58262 61168 {}
58262 61246 {}
58262 61324 {}
58262 61436 {}
58262 61496 {}
58262 61620 {}
58262 61680 {}
58262 61774 {}
58262 61884 {}
58262 61967 {}
58262 62061 {}
58262 62147 {}
58265 58266 {}
58267 58268 {}
58269 58270 {}
58271 59378 {}
59377 59379 {}
59377 59769 {}
59378 59379 {}
58274 59222 {}
58274 60056 {}
58274 60058 {}
59328 59329 {}
60055 60059 {}
60057 60060 {}
59222 59329 {}
59222 59332 {}
60056 60059 {}
60058 60060 {}
58277 58278 {}
58277 58292 {}
58278 58293 {}
58292 58294 {}
58292 59337 {}
58293 58294 {}
58281 58287 {}
58281 58289 {}
58281 59282 {}
58286 58290 {}
58288 58291 {}
59310 59311 {}
58287 58290 {}
58289 58291 {}
59282 59311 {}
59282 59314 {}
58284 58285 {}
58284 58286 {}
58284 58289 {}
58285 58287 {}
58285 58288 {}
58290 58292 {}
58290 61008 {}
58290 61011 {}
58291 58293 {}
58291 61009 {}
58291 61010 {}
61008 61012 {}
61011 61013 {}
61009 61012 {}
61010 61013 {}
58294 58295 {}
58294 59213 {}
59337 59338 {}
59337 59357 {}
59337 59360 {}
59337 59841 {}
58295 59212 {}
59213 59214 {}
59212 59214 {}
59212 59337 {}
58298 58299 {}
58298 58314 {}
58299 58313 {}
58314 59208 {}
58314 59211 {}
58314 59226 {}
58313 59209 {}
58313 59210 {}
58313 59226 {}
58302 58308 {}
58302 58310 {}
58302 59292 {}
58307 58311 {}
58309 58312 {}
59304 59305 {}
58308 58311 {}
58310 58312 {}
59292 59305 {}
59292 59308 {}
58305 58306 {}
58305 58307 {}
58305 58310 {}
58306 58308 {}
58306 58309 {}
58311 58314 {}
58311 60898 {}
58312 58313 {}
58312 60899 {}
60898 60900 {}
60899 60900 {}
59209 59211 {}
59210 59213 {}
59226 59227 {}
59226 59228 {}
59226 59230 {}
59208 59210 {}
59211 59212 {}
58317 58318 {}
58317 58332 {}
58318 58333 {}
58332 58334 {}
58332 59206 {}
58333 58334 {}
58321 58326 {}
58321 58329 {}
58321 59302 {}
58327 58330 {}
58328 58331 {}
59730 59731 {}
58326 58330 {}
58329 58331 {}
59302 59303 {}
59302 59680 {}
59302 59731 {}
58324 58325 {}
58324 58327 {}
58324 58329 {}
58325 58326 {}
58325 58328 {}
58330 58332 {}
58330 60784 {}
58330 60786 {}
58331 58333 {}
58331 60785 {}
58331 60787 {}
60784 60788 {}
60786 60789 {}
60785 60788 {}
60787 60789 {}
58334 58335 {}
58334 59247 {}
59206 59207 {}
59206 59209 {}
59206 59229 {}
59206 59230 {}
58335 59205 {}
59247 59248 {}
59205 59206 {}
59205 59248 {}
58338 58339 {}
58338 58856 {}
58339 58857 {}
58856 58858 {}
58856 59203 {}
58857 58858 {}
58342 58343 {}
58342 58851 {}
58342 58853 {}
58343 58850 {}
58343 58852 {}
58851 58854 {}
58853 58855 {}
58850 58854 {}
58852 58855 {}
58376 58377 {}
58374 58375 {}
58360 58361 {}
58362 58363 {}
58378 58379 {}
58382 58383 {}
58366 58367 {}
58368 58369 {}
58361 58364 {}
58364 58365 {}
58363 58364 {}
58365 58372 {}
58372 58373 {}
58367 58370 {}
58370 58371 {}
58369 58370 {}
58371 58372 {}
58373 58388 {}
58388 58389 {}
58388 58468 {}
58375 58384 {}
58384 58385 {}
58377 58380 {}
58380 58381 {}
58379 58380 {}
58381 58386 {}
58386 58387 {}
58383 58384 {}
58385 58386 {}
58387 58388 {}
58389 58766 {}
58468 58767 {}
58468 58770 {}
58766 58767 {}
58391 58396 {}
58397 58398 {}
58396 58398 {}
58396 58772 {}
58394 58395 {}
58394 58396 {}
58394 60982 {}
58394 60985 {}
58395 58397 {}
58395 60983 {}
58395 60984 {}
60982 60986 {}
60985 60987 {}
60983 60986 {}
60984 60987 {}
58398 58399 {}
58398 58465 {}
58772 58773 {}
58772 58839 {}
58772 58841 {}
58399 58464 {}
58465 58466 {}
58464 58466 {}
58464 58772 {}
58401 58407 {}
58406 58461 {}
58406 58462 {}
58406 58515 {}
58407 58460 {}
58407 58463 {}
58407 58515 {}
58404 58405 {}
58404 58407 {}
58404 60875 {}
58404 60877 {}
58405 58406 {}
58405 60874 {}
58405 60876 {}
60875 60878 {}
60877 60879 {}
60874 60878 {}
60876 60879 {}
58461 58463 {}
58462 58465 {}
58515 58516 {}
58515 58517 {}
58515 58519 {}
58460 58462 {}
58463 58464 {}
58409 58414 {}
58415 58416 {}
58414 58416 {}
58414 58458 {}
58412 58413 {}
58412 58414 {}
58412 60762 {}
58412 60765 {}
58413 58415 {}
58413 60763 {}
58413 60764 {}
60762 60766 {}
60765 60767 {}
60763 60766 {}
60764 60767 {}
58416 58417 {}
58416 58573 {}
58458 58459 {}
58458 58461 {}
58458 58517 {}
58458 58520 {}
58417 58457 {}
58573 58574 {}
58457 58458 {}
58457 58574 {}
58419 58425 {}
58424 58454 {}
58424 58455 {}
58424 58623 {}
58425 58453 {}
58425 58456 {}
58425 58623 {}
58422 58423 {}
58422 58425 {}
58422 60651 {}
58422 60654 {}
58423 58424 {}
58423 60652 {}
58423 60653 {}
60651 60655 {}
60654 60656 {}
60652 60655 {}
60653 60656 {}
58454 58456 {}
58455 58573 {}
58623 58624 {}
58623 58625 {}
58623 58628 {}
58453 58455 {}
58456 58457 {}
58427 58432 {}
58433 58434 {}
58432 58434 {}
58432 58451 {}
58430 58431 {}
58430 58432 {}
58430 60533 {}
58430 60536 {}
58431 58433 {}
58431 60534 {}
58431 60535 {}
60533 60537 {}
60536 60538 {}
60534 60537 {}
60535 60538 {}
58434 58435 {}
58434 58681 {}
58451 58452 {}
58451 58454 {}
58451 58626 {}
58451 58628 {}
58435 58450 {}
58681 58682 {}
58450 58451 {}
58450 58682 {}
58437 58443 {}
58442 58447 {}
58442 58448 {}
58442 58734 {}
58443 58446 {}
58443 58449 {}
58443 58734 {}
58440 58441 {}
58440 58443 {}
58440 60421 {}
58440 60423 {}
58441 58442 {}
58441 60420 {}
58441 60422 {}
60421 60424 {}
60423 60425 {}
60420 60424 {}
60422 60425 {}
58447 58449 {}
58448 58681 {}
58734 58735 {}
58734 58736 {}
58734 58739 {}
58446 58448 {}
58449 58450 {}
58445 58446 {}
58445 58736 {}
58445 58738 {}
58737 58740 {}
58739 58741 {}
58736 58740 {}
58738 58741 {}
58682 58683 {}
58682 58685 {}
58452 58453 {}
58452 58625 {}
58452 58627 {}
58626 58629 {}
58628 58630 {}
58625 58629 {}
58627 58630 {}
58574 58575 {}
58574 58757 {}
58459 58460 {}
58459 58518 {}
58459 58519 {}
58517 58521 {}
58520 58522 {}
58518 58521 {}
58519 58522 {}
58466 58467 {}
58466 58766 {}
58467 58468 {}
58767 58768 {}
58767 58864 {}
58770 58771 {}
58770 58844 {}
58770 58846 {}
58501 58502 {}
58499 58500 {}
58489 58490 {}
58493 58494 {}
58503 58504 {}
58507 58508 {}
58479 58480 {}
58480 58495 {}
58495 58496 {}
58487 58488 {}
58488 58491 {}
58491 58492 {}
58490 58491 {}
58492 58497 {}
58497 58498 {}
58494 58495 {}
58496 58497 {}
58498 58513 {}
58513 58514 {}
58513 58523 {}
58500 58509 {}
58509 58510 {}
58502 58505 {}
58505 58506 {}
58504 58505 {}
58506 58511 {}
58511 58512 {}
58508 58509 {}
58510 58511 {}
58512 58513 {}
58514 58524 {}
58523 58525 {}
58523 58764 {}
58524 58525 {}
58516 58518 {}
58516 58520 {}
58521 58523 {}
58522 58524 {}
58525 58526 {}
58525 58889 {}
58764 58765 {}
58764 58769 {}
58526 58763 {}
58889 58890 {}
58763 58764 {}
58763 58890 {}
58529 58530 {}
58530 58535 {}
58535 58536 {}
58533 58534 {}
58534 58535 {}
58536 58547 {}
58547 58548 {}
58539 58540 {}
58540 58545 {}
58545 58546 {}
58543 58544 {}
58544 58545 {}
58546 58547 {}
58548 58571 {}
58571 58572 {}
58571 58576 {}
58551 58552 {}
58552 58557 {}
58557 58558 {}
58555 58556 {}
58556 58557 {}
58558 58569 {}
58569 58570 {}
58561 58562 {}
58562 58567 {}
58567 58568 {}
58565 58566 {}
58566 58567 {}
58568 58569 {}
58570 58571 {}
58572 58757 {}
58576 58758 {}
58576 58761 {}
58757 58758 {}
58575 58576 {}
58758 58759 {}
58758 58906 {}
58761 58762 {}
58761 58763 {}
58579 58580 {}
58580 58585 {}
58585 58586 {}
58583 58584 {}
58584 58585 {}
58586 58597 {}
58597 58598 {}
58589 58590 {}
58590 58595 {}
58595 58596 {}
58593 58594 {}
58594 58595 {}
58596 58597 {}
58598 58621 {}
58621 58622 {}
58621 58631 {}
58601 58602 {}
58602 58607 {}
58607 58608 {}
58605 58606 {}
58606 58607 {}
58608 58619 {}
58619 58620 {}
58611 58612 {}
58612 58617 {}
58617 58618 {}
58615 58616 {}
58616 58617 {}
58618 58619 {}
58620 58621 {}
58622 58632 {}
58631 58633 {}
58631 58755 {}
58632 58633 {}
58624 58626 {}
58624 58627 {}
58629 58632 {}
58630 58631 {}
58633 58634 {}
58633 58931 {}
58755 58756 {}
58755 58760 {}
58634 58754 {}
58931 58932 {}
58754 58755 {}
58754 58932 {}
58637 58638 {}
58638 58643 {}
58643 58644 {}
58641 58642 {}
58642 58643 {}
58644 58655 {}
58655 58656 {}
58647 58648 {}
58648 58653 {}
58653 58654 {}
58651 58652 {}
58652 58653 {}
58654 58655 {}
58656 58679 {}
58679 58680 {}
58679 58684 {}
58659 58660 {}
58660 58665 {}
58665 58666 {}
58663 58664 {}
58664 58665 {}
58666 58677 {}
58677 58678 {}
58669 58670 {}
58670 58675 {}
58675 58676 {}
58673 58674 {}
58674 58675 {}
58676 58677 {}
58678 58679 {}
58680 58685 {}
58684 58686 {}
58684 58752 {}
58685 58686 {}
58683 58684 {}
58686 58687 {}
58686 58948 {}
58752 58753 {}
58752 58754 {}
58687 58751 {}
58948 58949 {}
58751 58752 {}
58751 58949 {}
58690 58691 {}
58691 58696 {}
58696 58697 {}
58694 58695 {}
58695 58696 {}
58697 58708 {}
58708 58709 {}
58700 58701 {}
58701 58706 {}
58706 58707 {}
58704 58705 {}
58705 58706 {}
58707 58708 {}
58709 58732 {}
58732 58733 {}
58732 58742 {}
58712 58713 {}
58713 58718 {}
58718 58719 {}
58716 58717 {}
58717 58718 {}
58719 58730 {}
58730 58731 {}
58722 58723 {}
58723 58728 {}
58728 58729 {}
58726 58727 {}
58727 58728 {}
58729 58730 {}
58731 58732 {}
58733 58745 {}
58742 58746 {}
58742 58749 {}
58745 58746 {}
58735 58737 {}
58735 58738 {}
58740 58745 {}
58741 58742 {}
58746 58747 {}
58746 58969 {}
58749 58750 {}
58749 58751 {}
58744 58969 {}
58748 58749 {}
58748 58970 {}
58969 58970 {}
58747 58748 {}
58970 58971 {}
58970 58976 {}
58970 58978 {}
58970 61642 {}
58750 58948 {}
58949 58950 {}
58949 58955 {}
58949 58957 {}
58949 61726 {}
58753 58931 {}
58932 58933 {}
58932 58934 {}
58932 58936 {}
58932 61818 {}
58756 58906 {}
58760 58761 {}
58760 58907 {}
58906 58907 {}
58759 58760 {}
58907 58908 {}
58907 58913 {}
58907 58915 {}
58907 61908 {}
58762 58889 {}
58890 58891 {}
58890 58892 {}
58890 58894 {}
58890 61998 {}
58765 58864 {}
58769 58770 {}
58769 58865 {}
58864 58865 {}
58768 58769 {}
58865 58866 {}
58865 58871 {}
58865 58873 {}
58865 62084 {}
58771 58845 {}
58771 58847 {}
58844 58848 {}
58846 58849 {}
58845 58848 {}
58847 58849 {}
58773 58838 {}
58773 58840 {}
58839 58842 {}
58841 58843 {}
58838 58842 {}
58840 58843 {}
58776 58777 {}
58777 58782 {}
58782 58783 {}
58780 58781 {}
58781 58782 {}
58783 58794 {}
58794 58795 {}
58786 58787 {}
58787 58792 {}
58792 58793 {}
58790 58791 {}
58791 58792 {}
58793 58794 {}
58795 58818 {}
58818 58819 {}
58818 58833 {}
58818 58834 {}
58798 58799 {}
58799 58804 {}
58804 58805 {}
58802 58803 {}
58803 58804 {}
58805 58816 {}
58816 58817 {}
58808 58809 {}
58809 58814 {}
58814 58815 {}
58812 58813 {}
58813 58814 {}
58815 58816 {}
58817 58818 {}
58819 58832 {}
58819 58835 {}
58833 58836 {}
58834 58837 {}
58832 58836 {}
58835 58837 {}
58821 58827 {}
58821 58828 {}
58826 58830 {}
58829 58831 {}
58827 58830 {}
58828 58831 {}
58824 58825 {}
58824 58827 {}
58824 58829 {}
58824 61100 {}
58824 61102 {}
58825 58826 {}
58825 58828 {}
58825 61099 {}
58825 61101 {}
61100 61103 {}
61102 61104 {}
61099 61103 {}
61101 61104 {}
58830 58832 {}
58830 58834 {}
58831 58833 {}
58831 58835 {}
58836 58839 {}
58836 58840 {}
58837 58838 {}
58837 58841 {}
58842 58845 {}
58842 58846 {}
58843 58844 {}
58843 58847 {}
58848 58850 {}
58848 58853 {}
58848 62180 {}
58848 62182 {}
58849 58851 {}
58849 58852 {}
58849 62179 {}
58849 62181 {}
62180 62183 {}
62182 62184 {}
62179 62183 {}
62181 62184 {}
58854 58856 {}
58854 60673 {}
58854 60676 {}
58855 58857 {}
58855 60674 {}
58855 60675 {}
60673 60677 {}
60676 60678 {}
60674 60677 {}
60675 60678 {}
58858 58859 {}
58858 59260 {}
59203 59204 {}
59203 59205 {}
58859 59202 {}
59260 59261 {}
59202 59203 {}
59202 59261 {}
58862 58863 {}
58862 58877 {}
58863 58878 {}
58877 58879 {}
58877 59200 {}
58878 58879 {}
58866 58872 {}
58866 58874 {}
58866 62083 {}
58871 58875 {}
58873 58876 {}
62084 62085 {}
58872 58875 {}
58874 58876 {}
62083 62085 {}
62083 62118 {}
58869 58870 {}
58869 58871 {}
58869 58874 {}
58870 58872 {}
58870 58873 {}
58875 58877 {}
58875 60559 {}
58875 60562 {}
58876 58878 {}
58876 60560 {}
58876 60561 {}
60559 60563 {}
60562 60564 {}
60560 60563 {}
60561 60564 {}
58879 58880 {}
58879 59273 {}
59200 59201 {}
59200 59202 {}
58880 59199 {}
59273 59274 {}
59199 59200 {}
59199 59274 {}
58883 58884 {}
58883 58898 {}
58884 58899 {}
58898 58900 {}
58898 59197 {}
58899 58900 {}
58887 58888 {}
58887 58892 {}
58887 58895 {}
58888 58893 {}
58888 58894 {}
58892 58896 {}
58895 58897 {}
58893 58896 {}
58894 58897 {}
58891 58893 {}
58891 58895 {}
58891 61997 {}
61998 61999 {}
61998 62088 {}
61998 62089 {}
61997 61999 {}
61997 62087 {}
61997 62090 {}
58896 58898 {}
58896 60444 {}
58896 60447 {}
58897 58899 {}
58897 60445 {}
58897 60446 {}
60444 60448 {}
60447 60449 {}
60445 60448 {}
60446 60449 {}
58900 58901 {}
58900 59283 {}
59197 59198 {}
59197 59199 {}
58901 59196 {}
59283 59284 {}
59196 59197 {}
59196 59284 {}
58904 58905 {}
58904 58919 {}
58905 58920 {}
58919 58921 {}
58919 59194 {}
58920 58921 {}
58908 58914 {}
58908 58916 {}
58908 61907 {}
58913 58917 {}
58915 58918 {}
61908 61909 {}
58914 58917 {}
58916 58918 {}
61907 61909 {}
61907 61986 {}
58911 58912 {}
58911 58913 {}
58911 58916 {}
58912 58914 {}
58912 58915 {}
58917 58919 {}
58917 60327 {}
58917 60329 {}
58918 58920 {}
58918 60328 {}
58918 60330 {}
60327 60331 {}
60329 60332 {}
60328 60331 {}
60330 60332 {}
58921 58922 {}
58921 59293 {}
59194 59195 {}
59194 59196 {}
58922 59193 {}
59293 59294 {}
59193 59194 {}
59193 59294 {}
58925 58926 {}
58925 58940 {}
58926 58941 {}
58940 58942 {}
58940 59191 {}
58941 58942 {}
58929 58930 {}
58929 58934 {}
58929 58937 {}
58930 58935 {}
58930 58936 {}
58934 58938 {}
58937 58939 {}
58935 58938 {}
58936 58939 {}
58933 58935 {}
58933 58937 {}
58933 61817 {}
61818 61819 {}
61818 61912 {}
61818 61913 {}
61817 61819 {}
61817 61911 {}
61817 61914 {}
58938 58940 {}
58938 60214 {}
58938 60216 {}
58939 58941 {}
58939 60215 {}
58939 60217 {}
60214 60218 {}
60216 60219 {}
60215 60218 {}
60217 60219 {}
58942 58943 {}
58942 62166 {}
59191 59192 {}
59191 59193 {}
58943 59190 {}
62166 62167 {}
59190 59191 {}
59190 62167 {}
58946 58947 {}
58946 58961 {}
58947 58962 {}
58961 58963 {}
58961 59188 {}
58962 58963 {}
58950 58956 {}
58950 58958 {}
58950 61725 {}
58955 58959 {}
58957 58960 {}
61726 61727 {}
58956 58959 {}
58958 58960 {}
61725 61727 {}
61725 61806 {}
58953 58954 {}
58953 58955 {}
58953 58958 {}
58954 58956 {}
58954 58957 {}
58959 58961 {}
58959 60099 {}
58959 60101 {}
58960 58962 {}
58960 60100 {}
58960 60102 {}
60099 60103 {}
60101 60104 {}
60100 60103 {}
60102 60104 {}
58963 58964 {}
58963 62074 {}
59188 59189 {}
59188 59190 {}
58964 59187 {}
62074 62075 {}
59187 59188 {}
59187 62075 {}
58967 58968 {}
58967 58982 {}
58968 58983 {}
58982 58984 {}
58982 59185 {}
58983 58984 {}
58971 58977 {}
58971 58979 {}
58971 61641 {}
58976 58980 {}
58978 58981 {}
61642 61643 {}
61642 61730 {}
61642 61731 {}
58977 58980 {}
58979 58981 {}
61641 61643 {}
61641 61729 {}
61641 61732 {}
58974 58975 {}
58974 58976 {}
58974 58979 {}
58975 58977 {}
58975 58978 {}
58980 58982 {}
58980 59984 {}
58980 59987 {}
58981 58983 {}
58981 59985 {}
58981 59986 {}
59984 59988 {}
59987 59989 {}
59985 59988 {}
59986 59989 {}
58984 58985 {}
58984 61988 {}
59185 59186 {}
59185 59187 {}
58985 59184 {}
61988 61989 {}
59184 59185 {}
59184 61989 {}
58988 58989 {}
58988 58990 {}
58989 59178 {}
59179 59180 {}
59179 61898 {}
59182 59183 {}
59182 59184 {}
58993 58994 {}
58993 59008 {}
58994 59009 {}
59008 59010 {}
59008 59176 {}
59009 59010 {}
58997 58998 {}
58997 59002 {}
58997 59005 {}
58998 59003 {}
58998 59004 {}
59002 59006 {}
59005 59007 {}
59003 59006 {}
59004 59007 {}
59001 59003 {}
59001 59005 {}
59001 61461 {}
61462 61463 {}
61462 61552 {}
61462 61553 {}
61461 61463 {}
61461 61551 {}
61461 61554 {}
59006 59008 {}
59006 62311 {}
59007 59009 {}
59007 62312 {}
62311 62313 {}
62312 62313 {}
59010 59011 {}
59010 61808 {}
59176 59177 {}
59176 59181 {}
59011 59175 {}
61808 61809 {}
59175 59176 {}
59175 61809 {}
59014 59015 {}
59014 59029 {}
59015 59030 {}
59029 59031 {}
59029 59173 {}
59030 59031 {}
59018 59024 {}
59018 59026 {}
59018 61369 {}
59023 59027 {}
59025 59028 {}
61370 61371 {}
59024 59027 {}
59026 59028 {}
61369 61371 {}
61369 61450 {}
59021 59022 {}
59021 59023 {}
59021 59026 {}
59022 59024 {}
59022 59025 {}
59027 59029 {}
59027 62297 {}
59028 59030 {}
59028 62298 {}
62297 62299 {}
62298 62299 {}
59031 59032 {}
59031 61716 {}
59173 59174 {}
59173 59175 {}
59032 59172 {}
61716 61717 {}
59172 59173 {}
59172 61717 {}
59035 59036 {}
59035 59050 {}
59036 59051 {}
59050 59052 {}
59050 59170 {}
59051 59052 {}
59039 59040 {}
59039 59044 {}
59039 59047 {}
59040 59045 {}
59040 59046 {}
59044 59048 {}
59047 59049 {}
59045 59048 {}
59046 59049 {}
59043 59045 {}
59043 59047 {}
59043 61281 {}
61282 61283 {}
61282 61374 {}
61282 61375 {}
61281 61283 {}
61281 61373 {}
61281 61376 {}
59048 59050 {}
59048 62281 {}
59049 59051 {}
59049 62282 {}
62281 62283 {}
62282 62283 {}
59052 59053 {}
59052 61632 {}
59170 59171 {}
59170 59172 {}
59053 59169 {}
61632 61633 {}
59169 59170 {}
59169 61633 {}
59056 59057 {}
59056 59071 {}
59057 59163 {}
59071 59164 {}
59071 59167 {}
59163 59164 {}
59060 59066 {}
59060 59068 {}
59060 61193 {}
59065 59069 {}
59067 59070 {}
61194 61195 {}
59066 59069 {}
59068 59070 {}
61193 61195 {}
61193 61270 {}
59063 59064 {}
59063 59065 {}
59063 59068 {}
59064 59066 {}
59064 59067 {}
59069 59071 {}
59069 62268 {}
59070 59163 {}
59070 62269 {}
62268 62270 {}
62269 62270 {}
59164 59165 {}
59164 61538 {}
59167 59168 {}
59167 59169 {}
59074 59075 {}
59074 59089 {}
59075 59090 {}
59089 59091 {}
59089 59161 {}
59090 59091 {}
59078 59084 {}
59078 59086 {}
59078 61105 {}
59083 59087 {}
59085 59088 {}
61106 61107 {}
59084 59087 {}
59086 59088 {}
61105 61107 {}
61105 61182 {}
59081 59082 {}
59081 59083 {}
59081 59086 {}
59082 59084 {}
59082 59085 {}
59087 59089 {}
59087 62253 {}
59088 59090 {}
59088 62254 {}
62253 62255 {}
62254 62255 {}
59091 59092 {}
59091 61452 {}
59161 59162 {}
59161 59166 {}
59092 59160 {}
61452 61453 {}
59160 59161 {}
59160 61453 {}
59095 59096 {}
59095 59110 {}
59096 59154 {}
59110 59155 {}
59110 59158 {}
59154 59155 {}
59099 59105 {}
59099 59107 {}
59099 60988 {}
59104 59108 {}
59106 59109 {}
60989 60990 {}
59105 59108 {}
59107 59109 {}
60988 60990 {}
60988 61069 {}
59102 59103 {}
59102 59104 {}
59102 59107 {}
59103 59105 {}
59103 59106 {}
59108 59110 {}
59108 62241 {}
59109 59154 {}
59109 62242 {}
62241 62243 {}
62242 62243 {}
59155 59156 {}
59155 61360 {}
59158 59159 {}
59158 59160 {}
59113 59114 {}
59113 59128 {}
59114 59148 {}
59128 59149 {}
59128 59152 {}
59148 59149 {}
59117 59123 {}
59117 59125 {}
59117 60880 {}
59122 59126 {}
59124 59127 {}
60881 60882 {}
60881 60993 {}
60881 60994 {}
59123 59126 {}
59125 59127 {}
60880 60882 {}
60880 60992 {}
60880 60995 {}
59120 59121 {}
59120 59122 {}
59120 59125 {}
59121 59123 {}
59121 59124 {}
59126 59128 {}
59126 62225 {}
59127 59148 {}
59127 62226 {}
62225 62227 {}
62226 62227 {}
59149 59150 {}
59149 61272 {}
59152 59153 {}
59152 59157 {}
59131 59132 {}
59131 59146 {}
59132 61184 {}
59146 59147 {}
59146 61185 {}
59146 61272 {}
61184 61185 {}
59135 59141 {}
59135 59143 {}
59135 60768 {}
59140 59144 {}
59142 59145 {}
60769 60770 {}
59141 59144 {}
59143 59145 {}
60768 60770 {}
60768 60846 {}
59138 59139 {}
59138 59140 {}
59138 59143 {}
59139 59141 {}
59139 59142 {}
59144 59146 {}
59144 62213 {}
59145 61184 {}
59145 62214 {}
62213 62215 {}
62214 62215 {}
59147 59151 {}
61185 61186 {}
61185 61187 {}
61185 61189 {}
61185 62552 {}
61272 61273 {}
59151 59152 {}
59151 61273 {}
59150 59151 {}
61273 61274 {}
61273 61275 {}
61273 61277 {}
61273 62559 {}
59153 61360 {}
59157 59158 {}
59157 61361 {}
61360 61361 {}
59156 59157 {}
61361 61362 {}
61361 61363 {}
61361 61365 {}
61361 62594 {}
59159 61452 {}
61453 61454 {}
61453 61455 {}
61453 61457 {}
61453 62618 {}
59162 61538 {}
59166 59167 {}
59166 61539 {}
61538 61539 {}
59165 59166 {}
61539 61540 {}
61539 61541 {}
61539 61543 {}
61539 62632 {}
59168 61632 {}
61633 61634 {}
61633 61635 {}
61633 61637 {}
61633 62658 {}
59171 61716 {}
61717 61718 {}
61717 61719 {}
61717 61721 {}
61717 62695 {}
59174 61808 {}
61809 61810 {}
61809 61811 {}
61809 61813 {}
61809 62708 {}
59177 61898 {}
59181 59182 {}
59181 61899 {}
61898 61899 {}
59180 59181 {}
61899 61900 {}
61899 61901 {}
61899 61903 {}
61899 62743 {}
59183 61988 {}
61989 61990 {}
61989 61991 {}
61989 61993 {}
61989 62768 {}
59186 62074 {}
62075 62076 {}
62075 62077 {}
62075 62079 {}
62075 62779 {}
59189 62166 {}
62167 62168 {}
62167 62169 {}
62167 62171 {}
62167 62822 {}
59192 59293 {}
59294 59295 {}
59294 59296 {}
59294 59298 {}
59294 62846 {}
59195 59283 {}
59284 59285 {}
59284 59286 {}
59284 59288 {}
59284 62860 {}
59198 59273 {}
59274 59275 {}
59274 59276 {}
59274 59278 {}
59274 62897 {}
59201 59260 {}
59261 59262 {}
59261 59263 {}
59261 59265 {}
59261 62915 {}
59204 59247 {}
59248 59249 {}
59248 59250 {}
59248 59252 {}
59248 62952 {}
59207 59208 {}
59207 59228 {}
59207 59231 {}
59229 59232 {}
59230 59233 {}
59228 59232 {}
59231 59233 {}
59214 59215 {}
59214 59216 {}
59214 59218 {}
59214 62989 {}
59215 59217 {}
59215 59219 {}
59215 62988 {}
62989 62990 {}
62988 62990 {}
62988 63029 {}
59220 59222 {}
59220 65239 {}
59221 59328 {}
59221 65238 {}
65239 65240 {}
65238 65240 {}
59329 59330 {}
59329 59427 {}
59332 59333 {}
59332 59373 {}
59225 59240 {}
59225 59945 {}
59225 59947 {}
59241 59242 {}
59944 59948 {}
59946 59949 {}
59240 59242 {}
59240 59326 {}
59945 59948 {}
59947 59949 {}
59227 59229 {}
59227 59231 {}
59232 59234 {}
59232 59236 {}
59232 62977 {}
59233 59235 {}
59233 59237 {}
59233 62976 {}
62977 62978 {}
62977 62993 {}
62977 62994 {}
62976 62978 {}
62976 62992 {}
62976 62995 {}
59238 59240 {}
59238 65229 {}
59239 59241 {}
59239 65230 {}
65229 65231 {}
65230 65231 {}
59242 59243 {}
59242 59480 {}
59326 59327 {}
59326 59331 {}
59243 59325 {}
59480 59481 {}
59325 59326 {}
59325 59481 {}
59246 59256 {}
59246 59831 {}
59246 59833 {}
59319 59320 {}
59830 59834 {}
59832 59835 {}
59256 59320 {}
59256 59323 {}
59831 59834 {}
59833 59835 {}
59249 59251 {}
59249 59253 {}
59249 62951 {}
62952 62953 {}
62951 62953 {}
62951 62974 {}
59254 59256 {}
59254 65219 {}
59255 59319 {}
59255 65220 {}
65219 65221 {}
65220 65221 {}
59320 59321 {}
59320 59530 {}
59323 59324 {}
59323 59325 {}
59259 59269 {}
59259 59348 {}
59259 59350 {}
59270 59271 {}
59347 59351 {}
59349 59352 {}
59269 59271 {}
59269 59317 {}
59348 59351 {}
59350 59352 {}
59262 59264 {}
59262 59266 {}
59262 62914 {}
62915 62916 {}
62914 62916 {}
62914 62949 {}
59267 59269 {}
59267 65208 {}
59268 59270 {}
59268 65207 {}
65208 65209 {}
65207 65209 {}
59271 59272 {}
59271 59580 {}
59317 59318 {}
59317 59322 {}
59272 59316 {}
59580 59581 {}
59316 59317 {}
59316 59581 {}
59275 59277 {}
59275 59279 {}
59275 62896 {}
62897 62898 {}
62896 62898 {}
62896 62912 {}
59280 59282 {}
59280 65199 {}
59281 59310 {}
59281 65200 {}
65199 65201 {}
65200 65201 {}
59311 59312 {}
59311 59630 {}
59314 59315 {}
59314 59316 {}
59285 59287 {}
59285 59289 {}
59285 62859 {}
62860 62861 {}
62860 62901 {}
62860 62902 {}
62859 62861 {}
62859 62900 {}
62859 62903 {}
59290 59292 {}
59290 65188 {}
59291 59304 {}
59291 65189 {}
65188 65190 {}
65189 65190 {}
59305 59306 {}
59305 59680 {}
59308 59309 {}
59308 59313 {}
59295 59297 {}
59295 59299 {}
59295 62845 {}
62846 62847 {}
62845 62847 {}
62845 62857 {}
59300 59302 {}
59300 65178 {}
59301 59730 {}
59301 65179 {}
65178 65180 {}
65179 65180 {}
59303 59307 {}
59680 59681 {}
59731 59732 {}
59731 62210 {}
59307 59308 {}
59307 59681 {}
59306 59307 {}
59681 59682 {}
59681 59735 {}
59309 59630 {}
59313 59314 {}
59313 59631 {}
59630 59631 {}
59312 59313 {}
59631 59632 {}
59631 59741 {}
59315 59580 {}
59581 59582 {}
59581 59747 {}
59318 59530 {}
59322 59323 {}
59322 59531 {}
59530 59531 {}
59321 59322 {}
59531 59532 {}
59531 59753 {}
59324 59480 {}
59481 59482 {}
59481 59759 {}
59327 59427 {}
59331 59332 {}
59331 59428 {}
59427 59428 {}
59330 59331 {}
59428 59429 {}
59428 59431 {}
59333 59374 {}
59373 59375 {}
59373 59817 {}
59374 59375 {}
59336 59369 {}
59336 60177 {}
59336 60179 {}
59370 59371 {}
60176 60180 {}
60178 60181 {}
59369 59371 {}
59369 59817 {}
60177 60180 {}
60179 60181 {}
59338 59358 {}
59338 59359 {}
59338 59840 {}
59357 59361 {}
59360 59362 {}
59841 59843 {}
59358 59361 {}
59359 59362 {}
59840 59842 {}
59341 59342 {}
59341 59353 {}
59342 59354 {}
59353 59355 {}
59353 59840 {}
59353 59843 {}
59354 59355 {}
59354 59841 {}
59354 59842 {}
59345 59346 {}
59345 59347 {}
59345 59350 {}
59346 59348 {}
59346 59349 {}
59351 59353 {}
59351 61121 {}
59351 61124 {}
59352 59354 {}
59352 61122 {}
59352 61123 {}
61121 61125 {}
61124 61126 {}
61122 61125 {}
61123 61126 {}
59355 59356 {}
59355 59357 {}
59355 59359 {}
59843 59844 {}
59842 59845 {}
59356 59358 {}
59356 59360 {}
59361 59363 {}
59361 59366 {}
59361 63031 {}
59362 59364 {}
59362 59365 {}
59362 63032 {}
63031 63033 {}
63031 63054 {}
63032 63033 {}
59367 59369 {}
59367 64924 {}
59368 59370 {}
59368 64923 {}
64924 64925 {}
64923 64925 {}
59371 59372 {}
59371 59374 {}
59817 59818 {}
59817 59858 {}
59372 59373 {}
59375 59376 {}
59375 59378 {}
59376 59377 {}
59379 59380 {}
59379 62308 {}
59769 59770 {}
59769 59866 {}
59380 59768 {}
62308 62309 {}
59768 59769 {}
59768 62309 {}
59383 59384 {}
59384 59389 {}
59389 59390 {}
59387 59388 {}
59388 59389 {}
59390 59401 {}
59401 59402 {}
59393 59394 {}
59394 59399 {}
59399 59400 {}
59397 59398 {}
59398 59399 {}
59400 59401 {}
59402 59425 {}
59425 59426 {}
59425 59430 {}
59405 59406 {}
59406 59411 {}
59411 59412 {}
59409 59410 {}
59410 59411 {}
59412 59423 {}
59423 59424 {}
59415 59416 {}
59416 59421 {}
59421 59422 {}
59419 59420 {}
59420 59421 {}
59422 59423 {}
59424 59425 {}
59426 59431 {}
59430 59432 {}
59430 59766 {}
59431 59432 {}
59429 59430 {}
59432 59433 {}
59432 62294 {}
59766 59767 {}
59766 59768 {}
59433 59765 {}
62294 62295 {}
59765 59766 {}
59765 62295 {}
59436 59437 {}
59437 59442 {}
59442 59443 {}
59440 59441 {}
59441 59442 {}
59443 59454 {}
59454 59455 {}
59446 59447 {}
59447 59452 {}
59452 59453 {}
59450 59451 {}
59451 59452 {}
59453 59454 {}
59455 59478 {}
59478 59479 {}
59478 59483 {}
59458 59459 {}
59459 59464 {}
59464 59465 {}
59462 59463 {}
59463 59464 {}
59465 59476 {}
59476 59477 {}
59468 59469 {}
59469 59474 {}
59474 59475 {}
59472 59473 {}
59473 59474 {}
59475 59476 {}
59477 59478 {}
59479 59759 {}
59483 59760 {}
59483 59763 {}
59759 59760 {}
59482 59483 {}
59760 59761 {}
59760 62278 {}
59763 59764 {}
59763 59765 {}
59486 59487 {}
59487 59492 {}
59492 59493 {}
59490 59491 {}
59491 59492 {}
59493 59504 {}
59504 59505 {}
59496 59497 {}
59497 59502 {}
59502 59503 {}
59500 59501 {}
59501 59502 {}
59503 59504 {}
59505 59528 {}
59528 59529 {}
59528 59533 {}
59508 59509 {}
59509 59514 {}
59514 59515 {}
59512 59513 {}
59513 59514 {}
59515 59526 {}
59526 59527 {}
59518 59519 {}
59519 59524 {}
59524 59525 {}
59522 59523 {}
59523 59524 {}
59525 59526 {}
59527 59528 {}
59529 59753 {}
59533 59754 {}
59533 59757 {}
59753 59754 {}
59532 59533 {}
59754 59755 {}
59754 62265 {}
59757 59758 {}
59757 59762 {}
59536 59537 {}
59537 59542 {}
59542 59543 {}
59540 59541 {}
59541 59542 {}
59543 59554 {}
59554 59555 {}
59546 59547 {}
59547 59552 {}
59552 59553 {}
59550 59551 {}
59551 59552 {}
59553 59554 {}
59555 59578 {}
59578 59579 {}
59578 59583 {}
59558 59559 {}
59559 59564 {}
59564 59565 {}
59562 59563 {}
59563 59564 {}
59565 59576 {}
59576 59577 {}
59568 59569 {}
59569 59574 {}
59574 59575 {}
59572 59573 {}
59573 59574 {}
59575 59576 {}
59577 59578 {}
59579 59747 {}
59583 59748 {}
59583 59751 {}
59747 59748 {}
59582 59583 {}
59748 59749 {}
59748 62250 {}
59751 59752 {}
59751 59756 {}
59586 59587 {}
59587 59592 {}
59592 59593 {}
59590 59591 {}
59591 59592 {}
59593 59604 {}
59604 59605 {}
59596 59597 {}
59597 59602 {}
59602 59603 {}
59600 59601 {}
59601 59602 {}
59603 59604 {}
59605 59628 {}
59628 59629 {}
59628 59633 {}
59608 59609 {}
59609 59614 {}
59614 59615 {}
59612 59613 {}
59613 59614 {}
59615 59626 {}
59626 59627 {}
59618 59619 {}
59619 59624 {}
59624 59625 {}
59622 59623 {}
59623 59624 {}
59625 59626 {}
59627 59628 {}
59629 59741 {}
59633 59742 {}
59633 59745 {}
59741 59742 {}
59632 59633 {}
59742 59743 {}
59742 62238 {}
59745 59746 {}
59745 59750 {}
59636 59637 {}
59637 59642 {}
59642 59643 {}
59640 59641 {}
59641 59642 {}
59643 59654 {}
59654 59655 {}
59646 59647 {}
59647 59652 {}
59652 59653 {}
59650 59651 {}
59651 59652 {}
59653 59654 {}
59655 59678 {}
59678 59679 {}
59678 59683 {}
59658 59659 {}
59659 59664 {}
59664 59665 {}
59662 59663 {}
59663 59664 {}
59665 59676 {}
59676 59677 {}
59668 59669 {}
59669 59674 {}
59674 59675 {}
59672 59673 {}
59673 59674 {}
59675 59676 {}
59677 59678 {}
59679 59735 {}
59683 59736 {}
59683 59739 {}
59735 59736 {}
59682 59683 {}
59736 59737 {}
59736 62222 {}
59739 59740 {}
59739 59744 {}
59686 59687 {}
59687 59692 {}
59692 59693 {}
59690 59691 {}
59691 59692 {}
59693 59704 {}
59704 59705 {}
59696 59697 {}
59697 59702 {}
59702 59703 {}
59700 59701 {}
59701 59702 {}
59703 59704 {}
59705 59728 {}
59728 59729 {}
59728 59733 {}
59708 59709 {}
59709 59714 {}
59714 59715 {}
59712 59713 {}
59713 59714 {}
59715 59726 {}
59726 59727 {}
59718 59719 {}
59719 59724 {}
59724 59725 {}
59722 59723 {}
59723 59724 {}
59725 59726 {}
59727 59728 {}
59729 62210 {}
59733 59734 {}
59733 62211 {}
59733 62222 {}
62210 62211 {}
59732 59733 {}
59734 59738 {}
62211 62212 {}
62211 62213 {}
62222 62223 {}
59738 59739 {}
59738 62223 {}
59737 59738 {}
62223 62224 {}
62223 62226 {}
59740 62238 {}
59744 59745 {}
59744 62239 {}
62238 62239 {}
59743 59744 {}
62239 62240 {}
62239 62241 {}
59746 62250 {}
59750 59751 {}
59750 62251 {}
62250 62251 {}
59749 59750 {}
62251 62252 {}
62251 62253 {}
59752 62265 {}
59756 59757 {}
59756 62266 {}
62265 62266 {}
59755 59756 {}
62266 62267 {}
62266 62268 {}
59758 62278 {}
59762 59763 {}
59762 62279 {}
62278 62279 {}
59761 59762 {}
62279 62280 {}
62279 62281 {}
59764 62294 {}
62295 62296 {}
62295 62297 {}
59767 62308 {}
62309 62310 {}
62309 62311 {}
59770 59867 {}
59866 59868 {}
59866 59881 {}
59867 59868 {}
59773 59774 {}
59774 59779 {}
59779 59780 {}
59777 59778 {}
59778 59779 {}
59780 59791 {}
59791 59792 {}
59783 59784 {}
59784 59789 {}
59789 59790 {}
59787 59788 {}
59788 59789 {}
59790 59791 {}
59792 59815 {}
59815 59816 {}
59815 59862 {}
59795 59796 {}
59796 59801 {}
59801 59802 {}
59799 59800 {}
59800 59801 {}
59802 59813 {}
59813 59814 {}
59805 59806 {}
59806 59811 {}
59811 59812 {}
59809 59810 {}
59810 59811 {}
59812 59813 {}
59814 59815 {}
59816 59863 {}
59862 59864 {}
59862 59881 {}
59863 59864 {}
59818 59859 {}
59858 59860 {}
59858 59929 {}
59859 59860 {}
59821 59854 {}
59821 60288 {}
59821 60290 {}
59855 59856 {}
60287 60291 {}
60289 60292 {}
59854 59856 {}
59854 59929 {}
60288 60291 {}
60290 60292 {}
59824 59825 {}
59824 59836 {}
59825 59837 {}
59836 59838 {}
59836 59934 {}
59837 59838 {}
59828 59829 {}
59828 59830 {}
59828 59833 {}
59829 59831 {}
59829 59832 {}
59834 59836 {}
59834 61209 {}
59834 61211 {}
59835 59837 {}
59835 61210 {}
59835 61212 {}
61209 61213 {}
61211 61214 {}
61210 61213 {}
61212 61214 {}
59838 59839 {}
59838 59845 {}
59934 59935 {}
59934 59954 {}
59934 59957 {}
59934 60066 {}
59839 59844 {}
59845 59846 {}
59844 59846 {}
59844 59934 {}
59846 59847 {}
59846 59848 {}
59846 59850 {}
59846 63057 {}
59847 59849 {}
59847 59851 {}
59847 63056 {}
63057 63058 {}
63056 63058 {}
63056 63067 {}
59852 59854 {}
59852 64934 {}
59853 59855 {}
59853 64933 {}
64934 64935 {}
64933 64935 {}
59856 59857 {}
59856 59859 {}
59929 59930 {}
59929 59971 {}
59929 59973 {}
59929 60084 {}
59857 59858 {}
59860 59861 {}
59860 59863 {}
59861 59862 {}
59864 59865 {}
59864 59867 {}
59881 59882 {}
59881 59980 {}
59865 59866 {}
59868 59869 {}
59868 59870 {}
59869 59871 {}
59869 66085 {}
59872 59873 {}
59872 59874 {}
59872 62320 {}
59872 62550 {}
59873 62552 {}
62550 62551 {}
62550 62553 {}
62550 62563 {}
62552 62553 {}
59876 59877 {}
59877 59878 {}
59992 59993 {}
59882 59981 {}
59980 59982 {}
59980 59996 {}
59981 59982 {}
59885 59886 {}
59886 59891 {}
59891 59892 {}
59889 59890 {}
59890 59891 {}
59892 59903 {}
59903 59904 {}
59895 59896 {}
59896 59901 {}
59901 59902 {}
59899 59900 {}
59900 59901 {}
59902 59903 {}
59904 59927 {}
59927 59928 {}
59927 59976 {}
59907 59908 {}
59908 59913 {}
59913 59914 {}
59911 59912 {}
59912 59913 {}
59914 59925 {}
59925 59926 {}
59917 59918 {}
59918 59923 {}
59923 59924 {}
59921 59922 {}
59922 59923 {}
59924 59925 {}
59926 59927 {}
59928 59977 {}
59976 59978 {}
59976 59996 {}
59977 59978 {}
59930 59970 {}
59930 59972 {}
59930 60083 {}
59971 59974 {}
59973 59975 {}
60084 60086 {}
59970 59974 {}
59972 59975 {}
60083 60085 {}
59933 59966 {}
59933 60405 {}
59933 60407 {}
59967 59968 {}
59967 60084 {}
59967 60085 {}
60404 60408 {}
60406 60409 {}
59966 59968 {}
59966 60083 {}
59966 60086 {}
60405 60408 {}
60407 60409 {}
59935 59955 {}
59935 59956 {}
59935 60065 {}
59954 59958 {}
59957 59959 {}
60066 60068 {}
59955 59958 {}
59956 59959 {}
60065 60067 {}
59938 59939 {}
59938 59950 {}
59939 59951 {}
59950 59952 {}
59950 60065 {}
59950 60068 {}
59951 59952 {}
59951 60066 {}
59951 60067 {}
59942 59943 {}
59942 59944 {}
59942 59947 {}
59943 59945 {}
59943 59946 {}
59948 59950 {}
59948 61299 {}
59949 59951 {}
59949 61300 {}
61299 61301 {}
61300 61301 {}
59952 59953 {}
59952 59954 {}
59952 59956 {}
60068 60069 {}
60067 60070 {}
59953 59955 {}
59953 59957 {}
59958 59960 {}
59958 59963 {}
59958 63069 {}
59959 59961 {}
59959 59962 {}
59959 63070 {}
63069 63071 {}
63069 63095 {}
63069 63098 {}
63070 63071 {}
63070 63096 {}
63070 63097 {}
59964 59966 {}
59964 64945 {}
59965 59967 {}
59965 64946 {}
64945 64947 {}
64946 64947 {}
59968 59969 {}
59968 59970 {}
59968 59973 {}
60086 60087 {}
60085 60088 {}
59969 59971 {}
59969 59972 {}
59974 59977 {}
59975 59976 {}
59978 59979 {}
59978 59981 {}
59996 59997 {}
59996 60095 {}
59979 59980 {}
59982 59983 {}
59982 59984 {}
59982 59986 {}
59983 59985 {}
59983 59987 {}
59983 66089 {}
59988 59990 {}
59988 62329 {}
59988 62558 {}
59989 62559 {}
62558 62560 {}
62558 62591 {}
62559 62560 {}
59994 59995 {}
59993 59994 {}
59997 60096 {}
60095 60097 {}
60095 60113 {}
60096 60097 {}
60000 60001 {}
60001 60006 {}
60006 60007 {}
60004 60005 {}
60005 60006 {}
60007 60018 {}
60018 60019 {}
60010 60011 {}
60011 60016 {}
60016 60017 {}
60014 60015 {}
60015 60016 {}
60017 60018 {}
60019 60042 {}
60042 60043 {}
60042 60091 {}
60022 60023 {}
60023 60028 {}
60028 60029 {}
60026 60027 {}
60027 60028 {}
60029 60040 {}
60040 60041 {}
60032 60033 {}
60033 60038 {}
60038 60039 {}
60036 60037 {}
60037 60038 {}
60039 60040 {}
60041 60042 {}
60043 60092 {}
60091 60093 {}
60091 60113 {}
60092 60093 {}
60046 60079 {}
60046 60516 {}
60046 60518 {}
60080 60081 {}
60515 60519 {}
60517 60520 {}
60079 60081 {}
60079 60161 {}
60516 60519 {}
60518 60520 {}
60049 60050 {}
60049 60061 {}
60050 60062 {}
60061 60063 {}
60061 60166 {}
60062 60063 {}
60053 60054 {}
60053 60055 {}
60053 60058 {}
60054 60056 {}
60054 60057 {}
60059 60061 {}
60059 61389 {}
60059 61391 {}
60060 60062 {}
60060 61390 {}
60060 61392 {}
61389 61393 {}
61391 61394 {}
61390 61393 {}
61392 61394 {}
60063 60064 {}
60063 60070 {}
60166 60167 {}
60166 60186 {}
60166 60189 {}
60166 60298 {}
60064 60069 {}
60070 60071 {}
60069 60071 {}
60069 60166 {}
60071 60072 {}
60071 60073 {}
60071 60075 {}
60071 63092 {}
60072 60074 {}
60072 60076 {}
60072 63091 {}
63092 63093 {}
63091 63093 {}
63091 63121 {}
60077 60079 {}
60077 64956 {}
60078 60080 {}
60078 64955 {}
64956 64957 {}
64955 64957 {}
60081 60082 {}
60081 60088 {}
60161 60162 {}
60161 60202 {}
60082 60087 {}
60088 60089 {}
60087 60089 {}
60087 60161 {}
60089 60090 {}
60089 60092 {}
60090 60091 {}
60093 60094 {}
60093 60096 {}
60113 60114 {}
60113 60210 {}
60094 60095 {}
60097 60098 {}
60097 60099 {}
60097 60102 {}
60098 60100 {}
60098 60101 {}
60098 66093 {}
60103 60105 {}
60103 62335 {}
60103 62593 {}
60104 62594 {}
62593 62595 {}
62593 62615 {}
62594 62595 {}
60110 60111 {}
60108 60109 {}
60109 60110 {}
60222 60223 {}
60114 60211 {}
60210 60212 {}
60210 60226 {}
60211 60212 {}
60117 60118 {}
60118 60123 {}
60123 60124 {}
60121 60122 {}
60122 60123 {}
60124 60135 {}
60135 60136 {}
60127 60128 {}
60128 60133 {}
60133 60134 {}
60131 60132 {}
60132 60133 {}
60134 60135 {}
60136 60159 {}
60159 60160 {}
60159 60206 {}
60139 60140 {}
60140 60145 {}
60145 60146 {}
60143 60144 {}
60144 60145 {}
60146 60157 {}
60157 60158 {}
60149 60150 {}
60150 60155 {}
60155 60156 {}
60153 60154 {}
60154 60155 {}
60156 60157 {}
60158 60159 {}
60160 60207 {}
60206 60208 {}
60206 60226 {}
60207 60208 {}
60162 60203 {}
60202 60204 {}
60202 60274 {}
60203 60204 {}
60165 60198 {}
60165 60636 {}
60165 60638 {}
60199 60200 {}
60635 60639 {}
60637 60640 {}
60198 60200 {}
60198 60274 {}
60636 60639 {}
60638 60640 {}
60167 60187 {}
60167 60188 {}
60167 60297 {}
60186 60190 {}
60189 60191 {}
60298 60300 {}
60187 60190 {}
60188 60191 {}
60297 60299 {}
60170 60171 {}
60170 60182 {}
60171 60183 {}
60182 60184 {}
60182 60297 {}
60182 60300 {}
60183 60184 {}
60183 60298 {}
60183 60299 {}
60174 60175 {}
60174 60176 {}
60174 60179 {}
60175 60177 {}
60175 60178 {}
60180 60182 {}
60180 61479 {}
60180 61482 {}
60181 60183 {}
60181 61480 {}
60181 61481 {}
61479 61483 {}
61482 61484 {}
61480 61483 {}
61481 61484 {}
60184 60185 {}
60184 60186 {}
60184 60188 {}
60300 60301 {}
60299 60302 {}
60185 60187 {}
60185 60189 {}
60190 60192 {}
60190 60195 {}
60190 63123 {}
60191 60193 {}
60191 60194 {}
60191 63124 {}
63123 63125 {}
63123 63156 {}
63124 63125 {}
60196 60198 {}
60196 64964 {}
60197 60199 {}
60197 64963 {}
64964 64965 {}
64963 64965 {}
60200 60201 {}
60200 60203 {}
60274 60275 {}
60274 60315 {}
60201 60202 {}
60204 60205 {}
60204 60207 {}
60205 60206 {}
60208 60209 {}
60208 60211 {}
60226 60227 {}
60226 60323 {}
60209 60210 {}
60212 60213 {}
60212 60214 {}
60212 60217 {}
60213 60215 {}
60213 60216 {}
60213 66097 {}
60218 60220 {}
60218 62341 {}
60218 62617 {}
60219 62618 {}
62617 62619 {}
62617 62629 {}
62618 62619 {}
60224 60225 {}
60223 60224 {}
60227 60324 {}
60323 60325 {}
60323 60341 {}
60324 60325 {}
60230 60231 {}
60231 60236 {}
60236 60237 {}
60234 60235 {}
60235 60236 {}
60237 60248 {}
60248 60249 {}
60240 60241 {}
60241 60246 {}
60246 60247 {}
60244 60245 {}
60245 60246 {}
60247 60248 {}
60249 60272 {}
60272 60273 {}
60272 60319 {}
60252 60253 {}
60253 60258 {}
60258 60259 {}
60256 60257 {}
60257 60258 {}
60259 60270 {}
60270 60271 {}
60262 60263 {}
60263 60268 {}
60268 60269 {}
60266 60267 {}
60267 60268 {}
60269 60270 {}
60271 60272 {}
60273 60320 {}
60319 60321 {}
60319 60341 {}
60320 60321 {}
60275 60316 {}
60315 60317 {}
60315 60389 {}
60316 60317 {}
60278 60311 {}
60278 60745 {}
60278 60747 {}
60312 60313 {}
60744 60748 {}
60746 60749 {}
60311 60313 {}
60311 60389 {}
60745 60748 {}
60747 60749 {}
60281 60282 {}
60281 60293 {}
60282 60294 {}
60293 60295 {}
60293 60394 {}
60294 60295 {}
60285 60286 {}
60285 60287 {}
60285 60290 {}
60286 60288 {}
60286 60289 {}
60291 60293 {}
60291 61567 {}
60291 61570 {}
60292 60294 {}
60292 61568 {}
60292 61569 {}
61567 61571 {}
61570 61572 {}
61568 61571 {}
61569 61572 {}
60295 60296 {}
60295 60302 {}
60394 60395 {}
60394 60414 {}
60394 60417 {}
60394 60526 {}
60296 60301 {}
60302 60303 {}
60301 60303 {}
60301 60394 {}
60303 60304 {}
60303 60305 {}
60303 60307 {}
60303 63159 {}
60304 60306 {}
60304 60308 {}
60304 63158 {}
63159 63160 {}
63158 63160 {}
63158 63170 {}
60309 60311 {}
60309 64975 {}
60310 60312 {}
60310 64976 {}
64975 64977 {}
64976 64977 {}
60313 60314 {}
60313 60316 {}
60389 60390 {}
60389 60431 {}
60389 60433 {}
60389 60544 {}
60314 60315 {}
60317 60318 {}
60317 60320 {}
60318 60319 {}
60321 60322 {}
60321 60324 {}
60341 60342 {}
60341 60440 {}
60322 60323 {}
60325 60326 {}
60325 60327 {}
60325 60330 {}
60326 60328 {}
60326 60329 {}
60326 66101 {}
60331 60333 {}
60331 62348 {}
60331 62631 {}
60332 62632 {}
62631 62633 {}
62631 62655 {}
62632 62633 {}
60338 60339 {}
60336 60337 {}
60337 60338 {}
60452 60453 {}
60342 60441 {}
60440 60442 {}
60440 60456 {}
60441 60442 {}
60345 60346 {}
60346 60351 {}
60351 60352 {}
60349 60350 {}
60350 60351 {}
60352 60363 {}
60363 60364 {}
60355 60356 {}
60356 60361 {}
60361 60362 {}
60359 60360 {}
60360 60361 {}
60362 60363 {}
60364 60387 {}
60387 60388 {}
60387 60436 {}
60367 60368 {}
60368 60373 {}
60373 60374 {}
60371 60372 {}
60372 60373 {}
60374 60385 {}
60385 60386 {}
60377 60378 {}
60378 60383 {}
60383 60384 {}
60381 60382 {}
60382 60383 {}
60384 60385 {}
60386 60387 {}
60388 60437 {}
60436 60438 {}
60436 60456 {}
60437 60438 {}
60390 60430 {}
60390 60432 {}
60390 60543 {}
60431 60434 {}
60433 60435 {}
60544 60546 {}
60430 60434 {}
60432 60435 {}
60543 60545 {}
60393 60426 {}
60393 60859 {}
60393 60861 {}
60427 60428 {}
60427 60544 {}
60427 60545 {}
60858 60862 {}
60860 60863 {}
60426 60428 {}
60426 60543 {}
60426 60546 {}
60859 60862 {}
60861 60863 {}
60395 60415 {}
60395 60416 {}
60395 60525 {}
60414 60418 {}
60417 60419 {}
60526 60528 {}
60415 60418 {}
60416 60419 {}
60525 60527 {}
60398 60399 {}
60398 60410 {}
60399 60411 {}
60410 60412 {}
60410 60525 {}
60410 60528 {}
60411 60412 {}
60411 60526 {}
60411 60527 {}
60402 60403 {}
60402 60404 {}
60402 60407 {}
60403 60405 {}
60403 60406 {}
60408 60410 {}
60408 61659 {}
60409 60411 {}
60409 61660 {}
61659 61661 {}
61660 61661 {}
60412 60413 {}
60412 60414 {}
60412 60416 {}
60528 60529 {}
60527 60530 {}
60413 60415 {}
60413 60417 {}
60418 60420 {}
60418 60423 {}
60418 63172 {}
60419 60421 {}
60419 60422 {}
60419 63173 {}
63172 63174 {}
63172 63211 {}
63172 63214 {}
63173 63174 {}
63173 63212 {}
63173 63213 {}
60424 60426 {}
60424 64985 {}
60425 60427 {}
60425 64986 {}
64985 64987 {}
64986 64987 {}
60428 60429 {}
60428 60430 {}
60428 60433 {}
60546 60547 {}
60545 60548 {}
60429 60431 {}
60429 60432 {}
60434 60437 {}
60435 60436 {}
60438 60439 {}
60438 60441 {}
60456 60457 {}
60456 60555 {}
60439 60440 {}
60442 60443 {}
60442 60444 {}
60442 60446 {}
60443 60445 {}
60443 60447 {}
60443 66105 {}
60448 60450 {}
60448 62355 {}
60448 62657 {}
60449 62658 {}
62657 62659 {}
62657 62692 {}
62658 62659 {}
60454 60455 {}
60453 60454 {}
60457 60556 {}
60555 60557 {}
60555 60572 {}
60556 60557 {}
60460 60461 {}
60461 60466 {}
60466 60467 {}
60464 60465 {}
60465 60466 {}
60467 60478 {}
60478 60479 {}
60470 60471 {}
60471 60476 {}
60476 60477 {}
60474 60475 {}
60475 60476 {}
60477 60478 {}
60479 60502 {}
60502 60503 {}
60502 60551 {}
60482 60483 {}
60483 60488 {}
60488 60489 {}
60486 60487 {}
60487 60488 {}
60489 60500 {}
60500 60501 {}
60492 60493 {}
60493 60498 {}
60498 60499 {}
60496 60497 {}
60497 60498 {}
60499 60500 {}
60501 60502 {}
60503 60552 {}
60551 60553 {}
60551 60572 {}
60552 60553 {}
60506 60539 {}
60506 60965 {}
60506 60967 {}
60540 60541 {}
60964 60968 {}
60966 60969 {}
60539 60541 {}
60539 60620 {}
60965 60968 {}
60967 60969 {}
60509 60510 {}
60509 60521 {}
60510 60522 {}
60521 60523 {}
60521 60625 {}
60522 60523 {}
60513 60514 {}
60513 60515 {}
60513 60518 {}
60514 60516 {}
60514 60517 {}
60519 60521 {}
60519 61745 {}
60519 61748 {}
60520 60522 {}
60520 61746 {}
60520 61747 {}
61745 61749 {}
61748 61750 {}
61746 61749 {}
61747 61750 {}
60523 60524 {}
60523 60530 {}
60625 60626 {}
60625 60646 {}
60625 60647 {}
60625 60754 {}
60524 60529 {}
60530 60531 {}
60529 60531 {}
60529 60625 {}
60531 60532 {}
60531 60533 {}
60531 60535 {}
60531 63208 {}
60532 60534 {}
60532 60536 {}
60532 63207 {}
63208 63209 {}
63207 63209 {}
63207 63223 {}
60537 60539 {}
60537 64995 {}
60538 60540 {}
60538 64996 {}
64995 64997 {}
64996 64997 {}
60541 60542 {}
60541 60548 {}
60620 60621 {}
60620 60661 {}
60542 60547 {}
60548 60549 {}
60547 60549 {}
60547 60620 {}
60549 60550 {}
60549 60552 {}
60550 60551 {}
60553 60554 {}
60553 60556 {}
60572 60573 {}
60572 60669 {}
60554 60555 {}
60557 60558 {}
60557 60559 {}
60557 60561 {}
60558 60560 {}
60558 60562 {}
60558 66109 {}
60563 60565 {}
60563 62363 {}
60563 62694 {}
60564 62695 {}
62694 62696 {}
62694 62705 {}
62695 62696 {}
60570 60571 {}
60568 60569 {}
60569 60570 {}
60573 60670 {}
60669 60671 {}
60669 60686 {}
60670 60671 {}
60576 60577 {}
60577 60582 {}
60582 60583 {}
60580 60581 {}
60581 60582 {}
60583 60594 {}
60594 60595 {}
60586 60587 {}
60587 60592 {}
60592 60593 {}
60590 60591 {}
60591 60592 {}
60593 60594 {}
60595 60618 {}
60618 60619 {}
60618 60665 {}
60598 60599 {}
60599 60604 {}
60604 60605 {}
60602 60603 {}
60603 60604 {}
60605 60616 {}
60616 60617 {}
60608 60609 {}
60609 60614 {}
60614 60615 {}
60612 60613 {}
60613 60614 {}
60615 60616 {}
60617 60618 {}
60619 60666 {}
60665 60667 {}
60665 60686 {}
60666 60667 {}
60621 60662 {}
60661 60663 {}
60661 60734 {}
60662 60663 {}
60624 60657 {}
60624 61082 {}
60624 61084 {}
60658 60659 {}
61081 61085 {}
61083 61086 {}
60657 60659 {}
60657 60734 {}
61082 61085 {}
61084 61086 {}
60626 60645 {}
60626 60648 {}
60626 60755 {}
60646 60649 {}
60647 60650 {}
60754 60756 {}
60645 60649 {}
60648 60650 {}
60755 60757 {}
60629 60630 {}
60629 60641 {}
60630 60642 {}
60641 60643 {}
60641 60755 {}
60641 60756 {}
60642 60643 {}
60642 60754 {}
60642 60757 {}
60633 60634 {}
60633 60635 {}
60633 60638 {}
60634 60636 {}
60634 60637 {}
60639 60641 {}
60639 61835 {}
60639 61838 {}
60640 60642 {}
60640 61836 {}
60640 61837 {}
61835 61839 {}
61838 61840 {}
61836 61839 {}
61837 61840 {}
60643 60644 {}
60643 60645 {}
60643 60647 {}
60756 60758 {}
60757 60759 {}
60644 60646 {}
60644 60648 {}
60649 60651 {}
60649 60653 {}
60649 63226 {}
60650 60652 {}
60650 60654 {}
60650 63225 {}
63226 63227 {}
63226 63265 {}
63226 63266 {}
63225 63227 {}
63225 63264 {}
63225 63267 {}
60655 60657 {}
60655 65003 {}
60656 60658 {}
60656 65004 {}
65003 65005 {}
65004 65005 {}
60659 60660 {}
60659 60662 {}
60734 60735 {}
60734 60772 {}
60660 60661 {}
60663 60664 {}
60663 60666 {}
60664 60665 {}
60667 60668 {}
60667 60670 {}
60686 60687 {}
60686 60780 {}
60668 60669 {}
60671 60672 {}
60671 60673 {}
60671 60675 {}
60672 60674 {}
60672 60676 {}
60672 66113 {}
60677 60679 {}
60677 62371 {}
60677 62707 {}
60678 62708 {}
62707 62709 {}
62707 62740 {}
62708 62709 {}
60684 60685 {}
60682 60683 {}
60683 60684 {}
60687 60781 {}
60780 60782 {}
60780 60798 {}
60781 60782 {}
60690 60691 {}
60691 60696 {}
60696 60697 {}
60694 60695 {}
60695 60696 {}
60697 60708 {}
60708 60709 {}
60700 60701 {}
60701 60706 {}
60706 60707 {}
60704 60705 {}
60705 60706 {}
60707 60708 {}
60709 60732 {}
60732 60733 {}
60732 60776 {}
60712 60713 {}
60713 60718 {}
60718 60719 {}
60716 60717 {}
60717 60718 {}
60719 60730 {}
60730 60731 {}
60722 60723 {}
60723 60728 {}
60728 60729 {}
60726 60727 {}
60727 60728 {}
60729 60730 {}
60731 60732 {}
60733 60777 {}
60776 60778 {}
60776 60798 {}
60777 60778 {}
60735 60773 {}
60772 60774 {}
60772 60846 {}
60773 60774 {}
60738 60739 {}
60738 60750 {}
60739 60751 {}
60750 60752 {}
60750 60848 {}
60751 60752 {}
60742 60743 {}
60742 60744 {}
60742 60747 {}
60743 60745 {}
60743 60746 {}
60748 60750 {}
60748 61927 {}
60748 61930 {}
60749 60751 {}
60749 61928 {}
60749 61929 {}
61927 61931 {}
61930 61932 {}
61928 61931 {}
61929 61932 {}
60752 60753 {}
60752 60759 {}
60848 60849 {}
60848 60868 {}
60848 60870 {}
60848 60975 {}
60753 60758 {}
60759 60760 {}
60758 60760 {}
60758 60848 {}
60760 60761 {}
60760 60762 {}
60760 60764 {}
60760 63261 {}
60761 60763 {}
60761 60765 {}
60761 63260 {}
63261 63262 {}
63260 63262 {}
63260 63275 {}
60766 60768 {}
60766 65016 {}
60767 60769 {}
60767 65017 {}
65016 65018 {}
65017 65018 {}
60770 60771 {}
60770 60773 {}
60846 60847 {}
60846 60885 {}
60846 60887 {}
60846 60993 {}
60771 60772 {}
60774 60775 {}
60774 60777 {}
60775 60776 {}
60778 60779 {}
60778 60781 {}
60798 60799 {}
60798 60894 {}
60779 60780 {}
60782 60783 {}
60782 60784 {}
60782 60787 {}
60783 60785 {}
60783 60786 {}
60783 66117 {}
60788 60790 {}
60788 62376 {}
60788 62742 {}
60789 62743 {}
62742 62744 {}
62742 62765 {}
62743 62744 {}
60795 60796 {}
60793 60794 {}
60794 60795 {}
60904 60905 {}
60799 60895 {}
60894 60896 {}
60894 60908 {}
60895 60896 {}
60802 60803 {}
60803 60808 {}
60808 60809 {}
60806 60807 {}
60807 60808 {}
60809 60820 {}
60820 60821 {}
60812 60813 {}
60813 60818 {}
60818 60819 {}
60816 60817 {}
60817 60818 {}
60819 60820 {}
60821 60844 {}
60844 60845 {}
60844 60890 {}
60824 60825 {}
60825 60830 {}
60830 60831 {}
60828 60829 {}
60829 60830 {}
60831 60842 {}
60842 60843 {}
60834 60835 {}
60835 60840 {}
60840 60841 {}
60838 60839 {}
60839 60840 {}
60841 60842 {}
60843 60844 {}
60845 60891 {}
60890 60892 {}
60890 60908 {}
60891 60892 {}
60847 60884 {}
60847 60886 {}
60847 60992 {}
60885 60888 {}
60887 60889 {}
60993 60995 {}
60884 60888 {}
60886 60889 {}
60992 60994 {}
60849 60869 {}
60849 60871 {}
60849 60974 {}
60868 60872 {}
60870 60873 {}
60975 60977 {}
60869 60872 {}
60871 60873 {}
60974 60976 {}
60852 60853 {}
60852 60864 {}
60853 60865 {}
60864 60866 {}
60864 60974 {}
60864 60977 {}
60865 60866 {}
60865 60975 {}
60865 60976 {}
60856 60857 {}
60856 60858 {}
60856 60861 {}
60857 60859 {}
60857 60860 {}
60862 60864 {}
60862 62015 {}
60863 60865 {}
60863 62016 {}
62015 62017 {}
62016 62017 {}
60866 60867 {}
60866 60868 {}
60866 60871 {}
60977 60978 {}
60976 60979 {}
60867 60869 {}
60867 60870 {}
60872 60874 {}
60872 60877 {}
60872 63277 {}
60873 60875 {}
60873 60876 {}
60873 63278 {}
63277 63279 {}
63277 63319 {}
63277 63320 {}
63278 63279 {}
63278 63318 {}
63278 63321 {}
60878 60880 {}
60878 65026 {}
60879 60881 {}
60879 65027 {}
65026 65028 {}
65027 65028 {}
60882 60883 {}
60882 60884 {}
60882 60887 {}
60995 60996 {}
60994 60997 {}
60883 60885 {}
60883 60886 {}
60888 60891 {}
60889 60890 {}
60892 60893 {}
60892 60895 {}
60908 60909 {}
60908 61004 {}
60893 60894 {}
60896 60897 {}
60896 60898 {}
60897 60899 {}
60897 66121 {}
60900 60901 {}
60900 60902 {}
60900 62384 {}
60900 62767 {}
60901 62768 {}
62767 62769 {}
62767 62782 {}
62767 62785 {}
62768 62769 {}
62768 62783 {}
62768 62784 {}
60906 60907 {}
60905 60906 {}
60909 61005 {}
61004 61006 {}
61004 61021 {}
61005 61006 {}
60912 60913 {}
60913 60918 {}
60918 60919 {}
60916 60917 {}
60917 60918 {}
60919 60930 {}
60930 60931 {}
60922 60923 {}
60923 60928 {}
60928 60929 {}
60926 60927 {}
60927 60928 {}
60929 60930 {}
60931 60954 {}
60954 60955 {}
60954 61000 {}
60934 60935 {}
60935 60940 {}
60940 60941 {}
60938 60939 {}
60939 60940 {}
60941 60952 {}
60952 60953 {}
60944 60945 {}
60945 60950 {}
60950 60951 {}
60948 60949 {}
60949 60950 {}
60951 60952 {}
60953 60954 {}
60955 61001 {}
61000 61002 {}
61000 61021 {}
61001 61002 {}
60958 60959 {}
60958 60970 {}
60959 60971 {}
60970 60972 {}
60970 61071 {}
60971 60972 {}
60962 60963 {}
60962 60964 {}
60962 60967 {}
60963 60965 {}
60963 60966 {}
60968 60970 {}
60968 62103 {}
60968 62106 {}
60969 60971 {}
60969 62104 {}
60969 62105 {}
62103 62107 {}
62106 62108 {}
62104 62107 {}
62105 62108 {}
60972 60973 {}
60972 60979 {}
61071 61072 {}
61071 61094 {}
61071 61096 {}
60973 60978 {}
60979 60980 {}
60978 60980 {}
60978 61071 {}
60980 60981 {}
60980 60982 {}
60980 60984 {}
60980 63315 {}
60981 60983 {}
60981 60985 {}
60981 63314 {}
63315 63316 {}
63314 63316 {}
63314 63329 {}
60986 60988 {}
60986 65035 {}
60987 60989 {}
60987 65034 {}
65035 65036 {}
65034 65036 {}
60990 60991 {}
60990 60997 {}
61069 61070 {}
61069 61109 {}
60991 60996 {}
60997 60998 {}
60996 60998 {}
60996 61069 {}
60998 60999 {}
60998 61001 {}
60999 61000 {}
61002 61003 {}
61002 61005 {}
61021 61022 {}
61021 61117 {}
61003 61004 {}
61006 61007 {}
61006 61008 {}
61006 61010 {}
61007 61009 {}
61007 61011 {}
61007 66125 {}
61012 61014 {}
61012 62390 {}
61012 62778 {}
61013 62779 {}
62778 62780 {}
62778 62819 {}
62779 62780 {}
61019 61020 {}
61017 61018 {}
61018 61019 {}
61022 61118 {}
61117 61119 {}
61117 61134 {}
61118 61119 {}
61025 61026 {}
61026 61031 {}
61031 61032 {}
61029 61030 {}
61030 61031 {}
61032 61043 {}
61043 61044 {}
61035 61036 {}
61036 61041 {}
61041 61042 {}
61039 61040 {}
61040 61041 {}
61042 61043 {}
61044 61067 {}
61067 61068 {}
61067 61113 {}
61047 61048 {}
61048 61053 {}
61053 61054 {}
61051 61052 {}
61052 61053 {}
61054 61065 {}
61065 61066 {}
61057 61058 {}
61058 61063 {}
61063 61064 {}
61061 61062 {}
61062 61063 {}
61064 61065 {}
61066 61067 {}
61068 61114 {}
61113 61115 {}
61113 61134 {}
61114 61115 {}
61070 61110 {}
61109 61111 {}
61109 61182 {}
61110 61111 {}
61072 61093 {}
61072 61095 {}
61094 61097 {}
61096 61098 {}
61093 61097 {}
61095 61098 {}
61075 61076 {}
61075 61088 {}
61075 61090 {}
61076 61087 {}
61076 61089 {}
61088 61091 {}
61090 61092 {}
61087 61091 {}
61089 61092 {}
61079 61080 {}
61079 61081 {}
61079 61084 {}
61080 61082 {}
61080 61083 {}
61085 61087 {}
61085 61090 {}
61085 62195 {}
61085 62197 {}
61086 61088 {}
61086 61089 {}
61086 62196 {}
61086 62198 {}
62195 62199 {}
62197 62200 {}
62196 62199 {}
62198 62200 {}
61091 61093 {}
61091 61096 {}
61092 61094 {}
61092 61095 {}
61097 61099 {}
61097 61102 {}
61097 63332 {}
61097 63333 {}
61098 61100 {}
61098 61101 {}
61098 63331 {}
61098 63334 {}
63332 63335 {}
63333 63336 {}
63331 63335 {}
63334 63336 {}
61103 61105 {}
61103 65046 {}
61104 61106 {}
61104 65047 {}
65046 65048 {}
65047 65048 {}
61107 61108 {}
61107 61110 {}
61182 61183 {}
61182 61197 {}
61108 61109 {}
61111 61112 {}
61111 61114 {}
61112 61113 {}
61115 61116 {}
61115 61118 {}
61134 61135 {}
61134 61205 {}
61116 61117 {}
61119 61120 {}
61119 61121 {}
61119 61123 {}
61120 61122 {}
61120 61124 {}
61120 66129 {}
61125 61127 {}
61125 62397 {}
61125 62821 {}
61126 62822 {}
62821 62823 {}
62821 62843 {}
62822 62823 {}
61132 61133 {}
61130 61131 {}
61131 61132 {}
61135 61206 {}
61205 61207 {}
61205 61222 {}
61206 61207 {}
61138 61139 {}
61139 61144 {}
61144 61145 {}
61142 61143 {}
61143 61144 {}
61145 61156 {}
61156 61157 {}
61148 61149 {}
61149 61154 {}
61154 61155 {}
61152 61153 {}
61153 61154 {}
61155 61156 {}
61157 61180 {}
61180 61181 {}
61180 61201 {}
61160 61161 {}
61161 61166 {}
61166 61167 {}
61164 61165 {}
61165 61166 {}
61167 61178 {}
61178 61179 {}
61170 61171 {}
61171 61176 {}
61176 61177 {}
61174 61175 {}
61175 61176 {}
61177 61178 {}
61179 61180 {}
61181 61202 {}
61201 61203 {}
61201 61222 {}
61202 61203 {}
61183 61198 {}
61197 61199 {}
61197 61270 {}
61198 61199 {}
61186 61188 {}
61186 61190 {}
61186 62550 {}
61191 61193 {}
61191 65056 {}
61192 61194 {}
61192 65057 {}
65056 65058 {}
65057 65058 {}
61195 61196 {}
61195 61198 {}
61270 61271 {}
61270 61285 {}
61270 61288 {}
61270 61374 {}
61196 61197 {}
61199 61200 {}
61199 61202 {}
61200 61201 {}
61203 61204 {}
61203 61206 {}
61222 61223 {}
61222 61295 {}
61204 61205 {}
61207 61208 {}
61207 61209 {}
61207 61212 {}
61208 61210 {}
61208 61211 {}
61208 66133 {}
61213 61215 {}
61213 62406 {}
61213 62845 {}
61214 62846 {}
61220 61221 {}
61218 61219 {}
61219 61220 {}
61223 61296 {}
61295 61297 {}
61295 61312 {}
61296 61297 {}
61226 61227 {}
61227 61232 {}
61232 61233 {}
61230 61231 {}
61231 61232 {}
61233 61244 {}
61244 61245 {}
61236 61237 {}
61237 61242 {}
61242 61243 {}
61240 61241 {}
61241 61242 {}
61243 61244 {}
61245 61268 {}
61268 61269 {}
61268 61291 {}
61248 61249 {}
61249 61254 {}
61254 61255 {}
61252 61253 {}
61253 61254 {}
61255 61266 {}
61266 61267 {}
61258 61259 {}
61259 61264 {}
61264 61265 {}
61262 61263 {}
61263 61264 {}
61265 61266 {}
61267 61268 {}
61269 61292 {}
61291 61293 {}
61291 61312 {}
61292 61293 {}
61271 61286 {}
61271 61287 {}
61271 61373 {}
61285 61289 {}
61288 61290 {}
61374 61376 {}
61286 61289 {}
61287 61290 {}
61373 61375 {}
61274 61276 {}
61274 61278 {}
61274 62558 {}
61279 61281 {}
61279 65064 {}
61280 61282 {}
61280 65065 {}
65064 65066 {}
65065 65066 {}
61283 61284 {}
61283 61285 {}
61283 61287 {}
61376 61377 {}
61375 61378 {}
61284 61286 {}
61284 61288 {}
61289 61291 {}
61290 61292 {}
61293 61294 {}
61293 61296 {}
61312 61313 {}
61312 61385 {}
61294 61295 {}
61297 61298 {}
61297 61299 {}
61298 61300 {}
61298 66137 {}
61301 61302 {}
61301 61303 {}
61301 62411 {}
61301 62859 {}
61302 62860 {}
61308 61309 {}
61306 61307 {}
61307 61308 {}
61396 61397 {}
61313 61386 {}
61385 61387 {}
61385 61402 {}
61386 61387 {}
61316 61317 {}
61317 61322 {}
61322 61323 {}
61320 61321 {}
61321 61322 {}
61323 61334 {}
61334 61335 {}
61326 61327 {}
61327 61332 {}
61332 61333 {}
61330 61331 {}
61331 61332 {}
61333 61334 {}
61335 61358 {}
61358 61359 {}
61358 61381 {}
61338 61339 {}
61339 61344 {}
61344 61345 {}
61342 61343 {}
61343 61344 {}
61345 61356 {}
61356 61357 {}
61348 61349 {}
61349 61354 {}
61354 61355 {}
61352 61353 {}
61353 61354 {}
61355 61356 {}
61357 61358 {}
61359 61382 {}
61381 61383 {}
61381 61402 {}
61382 61383 {}
61362 61364 {}
61362 61366 {}
61362 62593 {}
61367 61369 {}
61367 65077 {}
61368 61370 {}
61368 65078 {}
65077 65079 {}
65078 65079 {}
61371 61372 {}
61371 61378 {}
61450 61451 {}
61450 61465 {}
61450 61468 {}
61450 61552 {}
61372 61377 {}
61378 61379 {}
61377 61379 {}
61377 61450 {}
61379 61380 {}
61379 61382 {}
61380 61381 {}
61383 61384 {}
61383 61386 {}
61402 61403 {}
61402 61475 {}
61384 61385 {}
61387 61388 {}
61387 61389 {}
61387 61392 {}
61388 61390 {}
61388 61391 {}
61388 66141 {}
61393 61395 {}
61393 62420 {}
61393 62896 {}
61394 62897 {}
61398 61399 {}
61397 61398 {}
61488 61489 {}
61486 61487 {}
61403 61476 {}
61475 61477 {}
61475 61490 {}
61476 61477 {}
61406 61407 {}
61407 61412 {}
61412 61413 {}
61410 61411 {}
61411 61412 {}
61413 61424 {}
61424 61425 {}
61416 61417 {}
61417 61422 {}
61422 61423 {}
61420 61421 {}
61421 61422 {}
61423 61424 {}
61425 61448 {}
61448 61449 {}
61448 61471 {}
61428 61429 {}
61429 61434 {}
61434 61435 {}
61432 61433 {}
61433 61434 {}
61435 61446 {}
61446 61447 {}
61438 61439 {}
61439 61444 {}
61444 61445 {}
61442 61443 {}
61443 61444 {}
61445 61446 {}
61447 61448 {}
61449 61472 {}
61471 61473 {}
61471 61490 {}
61472 61473 {}
61451 61466 {}
61451 61467 {}
61451 61551 {}
61465 61469 {}
61468 61470 {}
61552 61554 {}
61466 61469 {}
61467 61470 {}
61551 61553 {}
61454 61456 {}
61454 61458 {}
61454 62617 {}
61459 61461 {}
61459 65085 {}
61460 61462 {}
61460 65086 {}
65085 65087 {}
65086 65087 {}
61463 61464 {}
61463 61465 {}
61463 61467 {}
61554 61555 {}
61553 61556 {}
61464 61466 {}
61464 61468 {}
61469 61471 {}
61470 61472 {}
61473 61474 {}
61473 61476 {}
61490 61491 {}
61490 61563 {}
61474 61475 {}
61477 61478 {}
61477 61479 {}
61477 61481 {}
61478 61480 {}
61478 61482 {}
61478 66145 {}
61483 61485 {}
61483 62425 {}
61483 62914 {}
61484 62915 {}
61487 61488 {}
61491 61564 {}
61563 61565 {}
61563 61582 {}
61564 61565 {}
61494 61495 {}
61495 61500 {}
61500 61501 {}
61498 61499 {}
61499 61500 {}
61501 61512 {}
61512 61513 {}
61504 61505 {}
61505 61510 {}
61510 61511 {}
61508 61509 {}
61509 61510 {}
61511 61512 {}
61513 61536 {}
61536 61537 {}
61536 61559 {}
61516 61517 {}
61517 61522 {}
61522 61523 {}
61520 61521 {}
61521 61522 {}
61523 61534 {}
61534 61535 {}
61526 61527 {}
61527 61532 {}
61532 61533 {}
61530 61531 {}
61531 61532 {}
61533 61534 {}
61535 61536 {}
61537 61560 {}
61559 61561 {}
61559 61582 {}
61560 61561 {}
61540 61542 {}
61540 61544 {}
61540 62631 {}
61545 61547 {}
61545 65097 {}
61546 61548 {}
61546 65098 {}
65097 65099 {}
65098 65099 {}
61549 61550 {}
61549 61556 {}
61630 61631 {}
61630 61645 {}
61630 61648 {}
61630 61730 {}
61550 61555 {}
61556 61557 {}
61555 61557 {}
61555 61630 {}
61557 61558 {}
61557 61560 {}
61558 61559 {}
61561 61562 {}
61561 61564 {}
61582 61583 {}
61582 61655 {}
61562 61563 {}
61565 61566 {}
61565 61567 {}
61565 61569 {}
61566 61568 {}
61566 61570 {}
61566 66149 {}
61571 61573 {}
61571 62433 {}
61571 62951 {}
61572 62952 {}
61578 61579 {}
61576 61577 {}
61577 61578 {}
61666 61667 {}
61664 61665 {}
61583 61656 {}
61655 61657 {}
61655 61668 {}
61656 61657 {}
61586 61587 {}
61587 61592 {}
61592 61593 {}
61590 61591 {}
61591 61592 {}
61593 61604 {}
61604 61605 {}
61596 61597 {}
61597 61602 {}
61602 61603 {}
61600 61601 {}
61601 61602 {}
61603 61604 {}
61605 61628 {}
61628 61629 {}
61628 61651 {}
61608 61609 {}
61609 61614 {}
61614 61615 {}
61612 61613 {}
61613 61614 {}
61615 61626 {}
61626 61627 {}
61618 61619 {}
61619 61624 {}
61624 61625 {}
61622 61623 {}
61623 61624 {}
61625 61626 {}
61627 61628 {}
61629 61652 {}
61651 61653 {}
61651 61668 {}
61652 61653 {}
61631 61646 {}
61631 61647 {}
61631 61729 {}
61645 61649 {}
61648 61650 {}
61730 61732 {}
61646 61649 {}
61647 61650 {}
61729 61731 {}
61634 61636 {}
61634 61638 {}
61634 62657 {}
61639 61641 {}
61639 65108 {}
61640 61642 {}
61640 65107 {}
65108 65109 {}
65107 65109 {}
61643 61644 {}
61643 61645 {}
61643 61647 {}
61732 61733 {}
61731 61734 {}
61644 61646 {}
61644 61648 {}
61649 61651 {}
61650 61652 {}
61653 61654 {}
61653 61656 {}
61668 61669 {}
61668 61741 {}
61654 61655 {}
61657 61658 {}
61657 61659 {}
61658 61660 {}
61658 66153 {}
61661 61662 {}
61661 61663 {}
61661 62441 {}
61661 62976 {}
61662 62977 {}
61665 61666 {}
61669 61742 {}
61741 61743 {}
61741 61758 {}
61742 61743 {}
61672 61673 {}
61673 61678 {}
61678 61679 {}
61676 61677 {}
61677 61678 {}
61679 61690 {}
61690 61691 {}
61682 61683 {}
61683 61688 {}
61688 61689 {}
61686 61687 {}
61687 61688 {}
61689 61690 {}
61691 61714 {}
61714 61715 {}
61714 61737 {}
61694 61695 {}
61695 61700 {}
61700 61701 {}
61698 61699 {}
61699 61700 {}
61701 61712 {}
61712 61713 {}
61704 61705 {}
61705 61710 {}
61710 61711 {}
61708 61709 {}
61709 61710 {}
61711 61712 {}
61713 61714 {}
61715 61738 {}
61737 61739 {}
61737 61758 {}
61738 61739 {}
61718 61720 {}
61718 61722 {}
61718 62694 {}
61723 61725 {}
61723 65117 {}
61724 61726 {}
61724 65118 {}
65117 65119 {}
65118 65119 {}
61727 61728 {}
61727 61734 {}
61806 61807 {}
61806 61821 {}
61806 61824 {}
61806 61912 {}
61728 61733 {}
61734 61735 {}
61733 61735 {}
61733 61806 {}
61735 61736 {}
61735 61738 {}
61736 61737 {}
61739 61740 {}
61739 61742 {}
61758 61759 {}
61758 61831 {}
61740 61741 {}
61743 61744 {}
61743 61745 {}
61743 61747 {}
61744 61746 {}
61744 61748 {}
61744 66157 {}
61749 61751 {}
61749 62446 {}
61749 62988 {}
61750 62989 {}
61756 61757 {}
61754 61755 {}
61755 61756 {}
61759 61832 {}
61831 61833 {}
61831 61850 {}
61832 61833 {}
61762 61763 {}
61763 61768 {}
61768 61769 {}
61766 61767 {}
61767 61768 {}
61769 61780 {}
61780 61781 {}
61772 61773 {}
61773 61778 {}
61778 61779 {}
61776 61777 {}
61777 61778 {}
61779 61780 {}
61781 61804 {}
61804 61805 {}
61804 61827 {}
61784 61785 {}
61785 61790 {}
61790 61791 {}
61788 61789 {}
61789 61790 {}
61791 61802 {}
61802 61803 {}
61794 61795 {}
61795 61800 {}
61800 61801 {}
61798 61799 {}
61799 61800 {}
61801 61802 {}
61803 61804 {}
61805 61828 {}
61827 61829 {}
61827 61850 {}
61828 61829 {}
61807 61822 {}
61807 61823 {}
61807 61911 {}
61821 61825 {}
61824 61826 {}
61912 61914 {}
61822 61825 {}
61823 61826 {}
61911 61913 {}
61810 61812 {}
61810 61814 {}
61810 62707 {}
61815 61817 {}
61815 65128 {}
61816 61818 {}
61816 65127 {}
65128 65129 {}
65127 65129 {}
61819 61820 {}
61819 61821 {}
61819 61823 {}
61914 61915 {}
61913 61916 {}
61820 61822 {}
61820 61824 {}
61825 61827 {}
61826 61828 {}
61829 61830 {}
61829 61832 {}
61850 61851 {}
61850 61923 {}
61830 61831 {}
61833 61834 {}
61833 61835 {}
61833 61837 {}
61834 61836 {}
61834 61838 {}
61834 66161 {}
61839 61841 {}
61839 62453 {}
61839 63031 {}
61840 63032 {}
61846 61847 {}
61844 61845 {}
61845 61846 {}
61936 61937 {}
61934 61935 {}
61851 61924 {}
61923 61925 {}
61923 61938 {}
61924 61925 {}
61854 61855 {}
61855 61860 {}
61860 61861 {}
61858 61859 {}
61859 61860 {}
61861 61872 {}
61872 61873 {}
61864 61865 {}
61865 61870 {}
61870 61871 {}
61868 61869 {}
61869 61870 {}
61871 61872 {}
61873 61896 {}
61896 61897 {}
61896 61919 {}
61876 61877 {}
61877 61882 {}
61882 61883 {}
61880 61881 {}
61881 61882 {}
61883 61894 {}
61894 61895 {}
61886 61887 {}
61887 61892 {}
61892 61893 {}
61890 61891 {}
61891 61892 {}
61893 61894 {}
61895 61896 {}
61897 61920 {}
61919 61921 {}
61919 61938 {}
61920 61921 {}
61900 61902 {}
61900 61904 {}
61900 62742 {}
61905 61907 {}
61905 65137 {}
61906 61908 {}
61906 65138 {}
65137 65139 {}
65138 65139 {}
61909 61910 {}
61909 61916 {}
61986 61987 {}
61986 62001 {}
61986 62004 {}
61986 62088 {}
61910 61915 {}
61916 61917 {}
61915 61917 {}
61915 61986 {}
61917 61918 {}
61917 61920 {}
61918 61919 {}
61921 61922 {}
61921 61924 {}
61938 61939 {}
61938 62011 {}
61922 61923 {}
61925 61926 {}
61925 61927 {}
61925 61929 {}
61926 61928 {}
61926 61930 {}
61926 66165 {}
61931 61933 {}
61931 62460 {}
61931 63056 {}
61932 63057 {}
61935 61936 {}
61939 62012 {}
62011 62013 {}
62011 62026 {}
62012 62013 {}
61942 61943 {}
61943 61948 {}
61948 61949 {}
61946 61947 {}
61947 61948 {}
61949 61960 {}
61960 61961 {}
61952 61953 {}
61953 61958 {}
61958 61959 {}
61956 61957 {}
61957 61958 {}
61959 61960 {}
61961 61984 {}
61984 61985 {}
61984 62007 {}
61964 61965 {}
61965 61970 {}
61970 61971 {}
61968 61969 {}
61969 61970 {}
61971 61982 {}
61982 61983 {}
61974 61975 {}
61975 61980 {}
61980 61981 {}
61978 61979 {}
61979 61980 {}
61981 61982 {}
61983 61984 {}
61985 62008 {}
62007 62009 {}
62007 62026 {}
62008 62009 {}
61987 62002 {}
61987 62003 {}
61987 62087 {}
62001 62005 {}
62004 62006 {}
62088 62090 {}
62002 62005 {}
62003 62006 {}
62087 62089 {}
61990 61992 {}
61990 61994 {}
61990 62767 {}
61995 61997 {}
61995 65147 {}
61996 61998 {}
61996 65148 {}
65147 65149 {}
65148 65149 {}
61999 62000 {}
61999 62001 {}
61999 62003 {}
62090 62091 {}
62089 62092 {}
62000 62002 {}
62000 62004 {}
62005 62007 {}
62006 62008 {}
62009 62010 {}
62009 62012 {}
62026 62027 {}
62026 62099 {}
62010 62011 {}
62013 62014 {}
62013 62015 {}
62014 62016 {}
62014 66169 {}
62017 62018 {}
62017 62019 {}
62017 62467 {}
62017 63069 {}
62018 63070 {}
62024 62025 {}
62022 62023 {}
62023 62024 {}
62027 62100 {}
62099 62101 {}
62099 62116 {}
62100 62101 {}
62030 62031 {}
62031 62036 {}
62036 62037 {}
62034 62035 {}
62035 62036 {}
62037 62048 {}
62048 62049 {}
62040 62041 {}
62041 62046 {}
62046 62047 {}
62044 62045 {}
62045 62046 {}
62047 62048 {}
62049 62072 {}
62072 62073 {}
62072 62095 {}
62052 62053 {}
62053 62058 {}
62058 62059 {}
62056 62057 {}
62057 62058 {}
62059 62070 {}
62070 62071 {}
62062 62063 {}
62063 62068 {}
62068 62069 {}
62066 62067 {}
62067 62068 {}
62069 62070 {}
62071 62072 {}
62073 62096 {}
62095 62097 {}
62095 62116 {}
62096 62097 {}
62076 62078 {}
62076 62080 {}
62076 62778 {}
62081 62083 {}
62081 65157 {}
62082 62084 {}
62082 65158 {}
65157 65159 {}
65158 65159 {}
62085 62086 {}
62085 62092 {}
62118 62119 {}
62118 62186 {}
62118 62188 {}
62086 62091 {}
62092 62093 {}
62091 62093 {}
62091 62118 {}
62093 62094 {}
62093 62096 {}
62094 62095 {}
62097 62098 {}
62097 62100 {}
62116 62117 {}
62116 62191 {}
62098 62099 {}
62101 62102 {}
62101 62103 {}
62101 62105 {}
62102 62104 {}
62102 62106 {}
62102 66173 {}
62107 62109 {}
62107 62476 {}
62107 63091 {}
62108 63092 {}
62114 62115 {}
62112 62113 {}
62113 62114 {}
62117 62192 {}
62191 62193 {}
62192 62193 {}
62119 62185 {}
62119 62187 {}
62186 62189 {}
62188 62190 {}
62185 62189 {}
62187 62190 {}
62122 62123 {}
62123 62128 {}
62128 62129 {}
62126 62127 {}
62127 62128 {}
62129 62140 {}
62140 62141 {}
62132 62133 {}
62133 62138 {}
62138 62139 {}
62136 62137 {}
62137 62138 {}
62139 62140 {}
62141 62164 {}
62164 62165 {}
62164 62176 {}
62144 62145 {}
62145 62150 {}
62150 62151 {}
62148 62149 {}
62149 62150 {}
62151 62162 {}
62162 62163 {}
62154 62155 {}
62155 62160 {}
62160 62161 {}
62158 62159 {}
62159 62160 {}
62161 62162 {}
62163 62164 {}
62165 62175 {}
62176 62177 {}
62175 62177 {}
62168 62170 {}
62168 62172 {}
62168 62821 {}
62173 62175 {}
62173 65168 {}
62174 62176 {}
62174 65169 {}
65168 65170 {}
65169 65170 {}
62177 62178 {}
62177 62180 {}
62177 62181 {}
62178 62179 {}
62178 62182 {}
62183 62186 {}
62183 62187 {}
62184 62185 {}
62184 62188 {}
62189 62192 {}
62190 62191 {}
62193 62194 {}
62193 62195 {}
62193 62198 {}
62193 66177 {}
62194 62196 {}
62194 62197 {}
62199 63124 {}
62200 62201 {}
62200 62482 {}
62200 63123 {}
62206 62207 {}
62204 62205 {}
62205 62206 {}
62220 62221 {}
62218 62219 {}
62212 62214 {}
62212 66053 {}
62215 62216 {}
62215 62217 {}
62215 62488 {}
62215 63158 {}
62216 63159 {}
62219 62220 {}
62224 62225 {}
62224 66057 {}
62227 62228 {}
62227 63173 {}
62228 62229 {}
62228 62497 {}
62228 63172 {}
62234 62235 {}
62232 62233 {}
62233 62234 {}
62248 62249 {}
62246 62247 {}
62240 62242 {}
62240 66061 {}
62243 62244 {}
62243 62245 {}
62243 62502 {}
62243 63207 {}
62244 63208 {}
62247 62248 {}
62252 62254 {}
62252 66065 {}
62255 62256 {}
62255 62257 {}
62255 62509 {}
62255 63225 {}
62256 63226 {}
62262 62263 {}
62260 62261 {}
62261 62262 {}
62276 62277 {}
62267 62269 {}
62267 66069 {}
62270 62271 {}
62270 62272 {}
62270 62516 {}
62270 63260 {}
62271 63261 {}
62274 62275 {}
62275 62276 {}
62280 62282 {}
62280 66073 {}
62283 62284 {}
62283 62285 {}
62283 62524 {}
62283 63277 {}
62284 63278 {}
62288 62289 {}
62290 62291 {}
62289 62290 {}
62302 62303 {}
62304 62305 {}
62296 62298 {}
62296 66077 {}
62299 62300 {}
62299 62301 {}
62299 62530 {}
62299 63314 {}
62300 63315 {}
62303 62304 {}
62318 62319 {}
62316 62317 {}
62310 62312 {}
62310 66081 {}
62313 62314 {}
62313 62315 {}
62313 62539 {}
62313 63331 {}
62313 63333 {}
62314 63332 {}
62314 63334 {}
62317 62318 {}
62323 62324 {}
62325 62326 {}
62324 62325 {}
62332 62333 {}
62330 62331 {}
62331 62332 {}
62337 62338 {}
62339 62340 {}
62338 62339 {}
62346 62347 {}
62344 62345 {}
62345 62346 {}
62353 62354 {}
62351 62352 {}
62352 62353 {}
62358 62359 {}
62360 62361 {}
62359 62360 {}
62367 62368 {}
62365 62366 {}
62366 62367 {}
62374 62375 {}
62372 62373 {}
62373 62374 {}
62379 62380 {}
62381 62382 {}
62380 62381 {}
62388 62389 {}
62386 62387 {}
62387 62388 {}
62395 62396 {}
62393 62394 {}
62394 62395 {}
62400 62401 {}
62402 62403 {}
62401 62402 {}
62409 62410 {}
62407 62408 {}
62408 62409 {}
62414 62415 {}
62416 62417 {}
62415 62416 {}
62423 62424 {}
62421 62422 {}
62422 62423 {}
62430 62431 {}
62428 62429 {}
62429 62430 {}
62435 62436 {}
62437 62438 {}
62436 62437 {}
62444 62445 {}
62442 62443 {}
62443 62444 {}
62451 62452 {}
62449 62450 {}
62450 62451 {}
62458 62459 {}
62456 62457 {}
62457 62458 {}
62465 62466 {}
62463 62464 {}
62464 62465 {}
62470 62471 {}
62472 62473 {}
62471 62472 {}
62479 62480 {}
62477 62478 {}
62478 62479 {}
62484 62485 {}
62486 62487 {}
62485 62486 {}
62493 62494 {}
62491 62492 {}
62492 62493 {}
62500 62501 {}
62498 62499 {}
62499 62500 {}
62507 62508 {}
62505 62506 {}
62506 62507 {}
62514 62515 {}
62512 62513 {}
62513 62514 {}
62519 62520 {}
62521 62522 {}
62520 62521 {}
62528 62529 {}
62526 62527 {}
62527 62528 {}
62535 62536 {}
62533 62534 {}
62534 62535 {}
62542 62543 {}
62540 62541 {}
62541 62542 {}
62545 62571 {}
62547 62548 {}
62547 62549 {}
62547 64182 {}
62547 64829 {}
62572 62573 {}
62571 62573 {}
62571 62580 {}
62548 64830 {}
62551 62562 {}
62553 62554 {}
62553 64181 {}
62553 65178 {}
62563 62564 {}
62562 62564 {}
62562 62591 {}
62554 62555 {}
62554 65179 {}
62560 62561 {}
62560 62563 {}
62591 62592 {}
62591 62597 {}
62561 62562 {}
62564 62565 {}
62564 65189 {}
62565 62566 {}
62565 64187 {}
62565 65188 {}
62578 62579 {}
62569 62570 {}
62569 62572 {}
62580 62581 {}
62580 62586 {}
62570 62571 {}
62573 62574 {}
62573 64843 {}
62574 62575 {}
62574 64186 {}
62574 64842 {}
62577 62578 {}
62581 62587 {}
62586 62588 {}
62586 62604 {}
62587 62588 {}
62584 62585 {}
62584 62587 {}
62604 62605 {}
62604 62610 {}
62585 62586 {}
62588 62589 {}
62588 62590 {}
62588 64191 {}
62588 64862 {}
62589 64863 {}
62592 62598 {}
62597 62599 {}
62597 62615 {}
62598 62599 {}
62595 62596 {}
62595 62598 {}
62615 62616 {}
62615 62621 {}
62596 62597 {}
62599 62600 {}
62599 64190 {}
62599 65199 {}
62600 62601 {}
62600 65200 {}
62605 62611 {}
62610 62612 {}
62610 62640 {}
62611 62612 {}
62608 62609 {}
62608 62611 {}
62640 62641 {}
62640 62646 {}
62609 62610 {}
62612 62613 {}
62612 62614 {}
62612 64870 {}
62613 64196 {}
62613 64871 {}
62626 62627 {}
62616 62622 {}
62621 62623 {}
62621 62629 {}
62622 62623 {}
62619 62620 {}
62619 62622 {}
62629 62630 {}
62629 62635 {}
62620 62621 {}
62623 62624 {}
62623 62625 {}
62623 65208 {}
62624 64195 {}
62624 65207 {}
62627 62628 {}
62630 62636 {}
62635 62637 {}
62635 62655 {}
62636 62637 {}
62633 62634 {}
62633 62636 {}
62655 62656 {}
62655 62661 {}
62634 62635 {}
62637 62638 {}
62637 65219 {}
62638 62639 {}
62638 64200 {}
62638 65220 {}
62653 62654 {}
62641 62647 {}
62646 62648 {}
62646 62666 {}
62647 62648 {}
62644 62645 {}
62644 62647 {}
62666 62667 {}
62666 62672 {}
62645 62646 {}
62648 62649 {}
62648 64883 {}
62649 62650 {}
62649 64199 {}
62649 64884 {}
62652 62653 {}
62656 62662 {}
62661 62663 {}
62661 62692 {}
62662 62663 {}
62659 62660 {}
62659 62662 {}
62692 62693 {}
62692 62698 {}
62660 62661 {}
62663 62664 {}
62663 65230 {}
62664 62665 {}
62664 64203 {}
62664 65229 {}
62667 62673 {}
62672 62674 {}
62672 62681 {}
62673 62674 {}
62670 62671 {}
62670 62673 {}
62681 62682 {}
62681 62687 {}
62671 62672 {}
62674 62675 {}
62674 64896 {}
62675 62676 {}
62675 64204 {}
62675 64897 {}
62679 62680 {}
62678 62679 {}
62682 62688 {}
62687 62689 {}
62687 62716 {}
62688 62689 {}
62685 62686 {}
62685 62688 {}
62716 62717 {}
62716 62722 {}
62686 62687 {}
62689 62690 {}
62689 64910 {}
62690 62691 {}
62690 64208 {}
62690 64911 {}
62703 62704 {}
62693 62699 {}
62698 62700 {}
62698 62705 {}
62699 62700 {}
62696 62697 {}
62696 62699 {}
62705 62706 {}
62705 62711 {}
62697 62698 {}
62700 62701 {}
62700 65239 {}
62701 62702 {}
62701 64207 {}
62701 65238 {}
62706 62712 {}
62711 62713 {}
62711 62740 {}
62712 62713 {}
62709 62710 {}
62709 62712 {}
62740 62741 {}
62740 62746 {}
62710 62711 {}
62713 62714 {}
62713 64924 {}
62714 62715 {}
62714 64212 {}
62714 64923 {}
62727 62728 {}
62717 62723 {}
62722 62724 {}
62722 62729 {}
62723 62724 {}
62720 62721 {}
62720 62723 {}
62729 62730 {}
62729 62735 {}
62721 62722 {}
62724 62725 {}
62724 64499 {}
62725 62726 {}
62725 64211 {}
62725 64500 {}
62730 62736 {}
62735 62737 {}
62735 62754 {}
62736 62737 {}
62733 62734 {}
62733 62736 {}
62754 62755 {}
62754 62761 {}
62754 62795 {}
62734 62735 {}
62737 62738 {}
62737 62739 {}
62737 64512 {}
62738 64218 {}
62738 64513 {}
62751 62752 {}
62741 62747 {}
62746 62748 {}
62746 62765 {}
62747 62748 {}
62744 62745 {}
62744 62747 {}
62765 62766 {}
62765 62772 {}
62765 62783 {}
62745 62746 {}
62748 62749 {}
62748 62750 {}
62748 64934 {}
62749 64217 {}
62749 64933 {}
62752 62753 {}
62755 62760 {}
62755 62796 {}
62761 62762 {}
62795 62797 {}
62760 62762 {}
62796 62798 {}
62758 62759 {}
62758 62761 {}
62797 62799 {}
62798 62800 {}
62759 62760 {}
62762 62763 {}
62762 62764 {}
62762 64221 {}
62762 64526 {}
62763 64525 {}
62776 62777 {}
62766 62771 {}
62766 62782 {}
62772 62773 {}
62783 62785 {}
62771 62773 {}
62782 62784 {}
62769 62770 {}
62769 62772 {}
62785 62786 {}
62784 62787 {}
62770 62771 {}
62773 62774 {}
62773 62775 {}
62773 64222 {}
62773 64946 {}
62774 64945 {}
62780 62781 {}
62780 62787 {}
62819 62820 {}
62819 62825 {}
62781 62786 {}
62787 62788 {}
62786 62788 {}
62786 62819 {}
62788 62789 {}
62788 64956 {}
62789 62790 {}
62789 64228 {}
62789 64955 {}
62806 62807 {}
62793 62794 {}
62793 62800 {}
62808 62809 {}
62808 62814 {}
62794 62799 {}
62800 62801 {}
62799 62801 {}
62799 62808 {}
62801 62802 {}
62801 64539 {}
62802 62803 {}
62802 64227 {}
62802 64538 {}
62805 62806 {}
62809 62815 {}
62814 62816 {}
62814 62832 {}
62815 62816 {}
62812 62813 {}
62812 62815 {}
62832 62833 {}
62832 62838 {}
62813 62814 {}
62816 62817 {}
62816 64234 {}
62816 64552 {}
62817 62818 {}
62817 64553 {}
62830 62831 {}
62820 62826 {}
62825 62827 {}
62825 62843 {}
62826 62827 {}
62823 62824 {}
62823 62826 {}
62843 62844 {}
62843 62849 {}
62824 62825 {}
62827 62828 {}
62827 64233 {}
62827 64964 {}
62828 62829 {}
62828 64963 {}
62833 62839 {}
62838 62840 {}
62838 62868 {}
62839 62840 {}
62836 62837 {}
62836 62839 {}
62868 62869 {}
62868 62875 {}
62868 62888 {}
62837 62838 {}
62840 62841 {}
62840 62842 {}
62840 64565 {}
62841 64239 {}
62841 64566 {}
62854 62855 {}
62844 62850 {}
62849 62851 {}
62849 62857 {}
62850 62851 {}
62847 62848 {}
62847 62850 {}
62857 62858 {}
62857 62864 {}
62857 62901 {}
62848 62849 {}
62851 62852 {}
62851 62853 {}
62851 64975 {}
62852 64238 {}
62852 64976 {}
62855 62856 {}
62858 62863 {}
62858 62900 {}
62864 62865 {}
62901 62903 {}
62863 62865 {}
62900 62902 {}
62861 62862 {}
62861 62864 {}
62903 62904 {}
62902 62905 {}
62862 62863 {}
62865 62866 {}
62865 62867 {}
62865 64243 {}
62865 64986 {}
62866 64985 {}
62881 62882 {}
62869 62874 {}
62869 62887 {}
62875 62876 {}
62888 62890 {}
62874 62876 {}
62887 62889 {}
62872 62873 {}
62872 62875 {}
62890 62891 {}
62889 62892 {}
62873 62874 {}
62876 62877 {}
62876 62878 {}
62876 64242 {}
62876 64579 {}
62877 64578 {}
62880 62881 {}
62885 62886 {}
62885 62892 {}
62923 62924 {}
62923 62929 {}
62886 62891 {}
62892 62893 {}
62891 62893 {}
62891 62923 {}
62893 62894 {}
62893 62895 {}
62893 64591 {}
62894 64248 {}
62894 64592 {}
62909 62910 {}
62898 62899 {}
62898 62905 {}
62912 62913 {}
62912 62918 {}
62899 62904 {}
62905 62906 {}
62904 62906 {}
62904 62912 {}
62906 62907 {}
62906 62908 {}
62906 64995 {}
62907 64249 {}
62907 64996 {}
62910 62911 {}
62913 62919 {}
62918 62920 {}
62918 62949 {}
62919 62920 {}
62916 62917 {}
62916 62919 {}
62949 62950 {}
62949 62955 {}
62917 62918 {}
62920 62921 {}
62920 65004 {}
62921 62922 {}
62921 64253 {}
62921 65003 {}
62936 62937 {}
62924 62930 {}
62929 62931 {}
62929 62938 {}
62930 62931 {}
62927 62928 {}
62927 62930 {}
62938 62939 {}
62938 62944 {}
62928 62929 {}
62931 62932 {}
62931 64610 {}
62932 62933 {}
62932 64252 {}
62932 64609 {}
62935 62936 {}
62939 62945 {}
62944 62946 {}
62944 62963 {}
62945 62946 {}
62942 62943 {}
62942 62945 {}
62963 62964 {}
62963 62970 {}
62963 63006 {}
62943 62944 {}
62946 62947 {}
62946 62948 {}
62946 64259 {}
62946 64623 {}
62947 64624 {}
62960 62961 {}
62950 62956 {}
62955 62957 {}
62955 62974 {}
62956 62957 {}
62953 62954 {}
62953 62956 {}
62974 62975 {}
62974 62981 {}
62974 62993 {}
62954 62955 {}
62957 62958 {}
62957 62959 {}
62957 64258 {}
62957 65016 {}
62958 65017 {}
62961 62962 {}
62964 62969 {}
62964 63005 {}
62970 62971 {}
63006 63008 {}
62969 62971 {}
63005 63007 {}
62967 62968 {}
62967 62969 {}
63008 63009 {}
63007 63010 {}
62968 62970 {}
62971 62972 {}
62971 62973 {}
62971 64264 {}
62971 64631 {}
62972 64632 {}
62985 62986 {}
62975 62980 {}
62975 62992 {}
62981 62982 {}
62993 62995 {}
62980 62982 {}
62992 62994 {}
62978 62979 {}
62978 62980 {}
62995 62996 {}
62994 62997 {}
62979 62981 {}
62982 62983 {}
62982 62984 {}
62982 64263 {}
62982 65026 {}
62983 65027 {}
62986 62987 {}
62990 62991 {}
62990 62997 {}
63029 63030 {}
63029 63035 {}
62991 62996 {}
62997 62998 {}
62996 62998 {}
62996 63029 {}
62998 62999 {}
62998 65035 {}
62999 63000 {}
62999 64269 {}
62999 65034 {}
63016 63017 {}
63003 63004 {}
63003 63010 {}
63018 63019 {}
63018 63024 {}
63004 63009 {}
63010 63011 {}
63009 63011 {}
63009 63018 {}
63011 63012 {}
63011 64644 {}
63012 63013 {}
63012 64268 {}
63012 64645 {}
63015 63016 {}
63019 63025 {}
63024 63026 {}
63024 63043 {}
63025 63026 {}
63022 63023 {}
63022 63025 {}
63043 63044 {}
63043 63049 {}
63023 63024 {}
63026 63027 {}
63026 63028 {}
63026 64657 {}
63027 64275 {}
63027 64658 {}
63040 63041 {}
63030 63036 {}
63035 63037 {}
63035 63054 {}
63036 63037 {}
63033 63034 {}
63033 63036 {}
63054 63055 {}
63054 63060 {}
63034 63035 {}
63037 63038 {}
63037 63039 {}
63037 65046 {}
63038 64274 {}
63038 65047 {}
63041 63042 {}
63044 63050 {}
63049 63051 {}
63049 63078 {}
63050 63051 {}
63047 63048 {}
63047 63050 {}
63078 63079 {}
63078 63085 {}
63078 63109 {}
63048 63049 {}
63051 63052 {}
63051 64670 {}
63052 63053 {}
63052 64279 {}
63052 64671 {}
63065 63066 {}
63055 63061 {}
63060 63062 {}
63060 63067 {}
63061 63062 {}
63058 63059 {}
63058 63061 {}
63067 63068 {}
63067 63074 {}
63067 63096 {}
63059 63060 {}
63062 63063 {}
63062 65056 {}
63063 63064 {}
63063 64278 {}
63063 65057 {}
63068 63073 {}
63068 63095 {}
63074 63075 {}
63096 63098 {}
63073 63075 {}
63095 63097 {}
63071 63072 {}
63071 63074 {}
63098 63099 {}
63097 63100 {}
63072 63073 {}
63075 63076 {}
63075 63077 {}
63075 64283 {}
63075 65064 {}
63076 65065 {}
63089 63090 {}
63079 63084 {}
63079 63108 {}
63085 63086 {}
63109 63111 {}
63084 63086 {}
63108 63110 {}
63082 63083 {}
63082 63085 {}
63111 63112 {}
63110 63113 {}
63083 63084 {}
63086 63087 {}
63086 63088 {}
63086 64282 {}
63086 64689 {}
63087 64688 {}
63093 63094 {}
63093 63100 {}
63121 63122 {}
63121 63127 {}
63094 63099 {}
63100 63101 {}
63099 63101 {}
63099 63121 {}
63101 63102 {}
63101 65077 {}
63102 63103 {}
63102 64289 {}
63102 65078 {}
63119 63120 {}
63106 63107 {}
63106 63113 {}
63132 63133 {}
63132 63138 {}
63107 63112 {}
63113 63114 {}
63112 63114 {}
63112 63132 {}
63114 63115 {}
63114 64696 {}
63115 63116 {}
63115 64288 {}
63115 64697 {}
63118 63119 {}
63122 63128 {}
63127 63129 {}
63127 63156 {}
63128 63129 {}
63125 63126 {}
63125 63128 {}
63156 63157 {}
63156 63162 {}
63126 63127 {}
63129 63130 {}
63129 65085 {}
63130 63131 {}
63130 64295 {}
63130 65086 {}
63143 63144 {}
63133 63139 {}
63138 63140 {}
63138 63145 {}
63139 63140 {}
63136 63137 {}
63136 63139 {}
63145 63146 {}
63145 63151 {}
63137 63138 {}
63140 63141 {}
63140 64709 {}
63141 63142 {}
63141 64294 {}
63141 64710 {}
63146 63152 {}
63151 63153 {}
63151 63181 {}
63152 63153 {}
63149 63150 {}
63149 63152 {}
63181 63182 {}
63181 63187 {}
63181 63199 {}
63150 63151 {}
63153 63154 {}
63153 63155 {}
63153 64299 {}
63153 64722 {}
63154 64723 {}
63167 63168 {}
63157 63163 {}
63162 63164 {}
63162 63170 {}
63163 63164 {}
63160 63161 {}
63160 63163 {}
63170 63171 {}
63170 63176 {}
63170 63212 {}
63161 63162 {}
63164 63165 {}
63164 63166 {}
63164 64298 {}
63164 65097 {}
63165 65098 {}
63168 63169 {}
63171 63177 {}
63171 63211 {}
63176 63178 {}
63212 63214 {}
63177 63178 {}
63211 63213 {}
63174 63175 {}
63174 63176 {}
63214 63215 {}
63213 63216 {}
63175 63177 {}
63178 63179 {}
63178 63180 {}
63178 64304 {}
63178 65107 {}
63179 65108 {}
63192 63193 {}
63182 63188 {}
63182 63198 {}
63187 63189 {}
63199 63201 {}
63188 63189 {}
63198 63200 {}
63185 63186 {}
63185 63187 {}
63201 63202 {}
63200 63203 {}
63186 63188 {}
63189 63190 {}
63189 63191 {}
63189 64303 {}
63189 64740 {}
63190 64741 {}
63196 63197 {}
63196 63203 {}
63234 63235 {}
63234 63240 {}
63234 63252 {}
63197 63202 {}
63203 63204 {}
63202 63204 {}
63202 63234 {}
63204 63205 {}
63204 63206 {}
63204 64754 {}
63205 64310 {}
63205 64753 {}
63220 63221 {}
63209 63210 {}
63209 63216 {}
63223 63224 {}
63223 63229 {}
63223 63265 {}
63210 63215 {}
63216 63217 {}
63215 63217 {}
63215 63223 {}
63217 63218 {}
63217 63219 {}
63217 65117 {}
63218 64309 {}
63218 65118 {}
63221 63222 {}
63224 63230 {}
63224 63264 {}
63229 63231 {}
63265 63267 {}
63230 63231 {}
63264 63266 {}
63227 63228 {}
63227 63229 {}
63267 63268 {}
63266 63269 {}
63228 63230 {}
63231 63232 {}
63231 63233 {}
63231 64314 {}
63231 65127 {}
63232 65128 {}
63245 63246 {}
63235 63241 {}
63235 63251 {}
63240 63242 {}
63252 63254 {}
63241 63242 {}
63251 63253 {}
63238 63239 {}
63238 63240 {}
63254 63255 {}
63253 63256 {}
63239 63241 {}
63242 63243 {}
63242 63244 {}
63242 64313 {}
63242 64761 {}
63243 64762 {}
63249 63250 {}
63249 63256 {}
63286 63287 {}
63286 63292 {}
63286 63305 {}
63250 63255 {}
63256 63257 {}
63255 63257 {}
63255 63286 {}
63257 63258 {}
63257 64775 {}
63258 63259 {}
63258 64319 {}
63258 64776 {}
63273 63274 {}
63262 63263 {}
63262 63269 {}
63275 63276 {}
63275 63282 {}
63275 63318 {}
63263 63268 {}
63269 63270 {}
63268 63270 {}
63268 63275 {}
63270 63271 {}
63270 65137 {}
63271 63272 {}
63271 64320 {}
63271 65138 {}
63276 63281 {}
63276 63319 {}
63282 63283 {}
63318 63320 {}
63281 63283 {}
63319 63321 {}
63279 63280 {}
63279 63281 {}
63320 63322 {}
63321 63323 {}
63280 63282 {}
63283 63284 {}
63283 65147 {}
63284 63285 {}
63284 64326 {}
63284 65148 {}
63299 63300 {}
63287 63293 {}
63287 63306 {}
63292 63294 {}
63305 63307 {}
63293 63294 {}
63306 63308 {}
63290 63291 {}
63290 63292 {}
63307 63309 {}
63308 63310 {}
63291 63293 {}
63294 63295 {}
63294 63296 {}
63294 64325 {}
63294 64789 {}
63295 64788 {}
63298 63299 {}
63303 63304 {}
63303 63310 {}
63344 63345 {}
63344 63353 {}
63344 63355 {}
63304 63309 {}
63310 63311 {}
63309 63311 {}
63309 63344 {}
63311 63312 {}
63311 64802 {}
63312 63313 {}
63312 64332 {}
63312 64801 {}
63327 63328 {}
63316 63317 {}
63316 63323 {}
63329 63330 {}
63329 63338 {}
63329 63340 {}
63317 63322 {}
63323 63324 {}
63322 63324 {}
63322 63329 {}
63324 63325 {}
63324 65158 {}
63325 63326 {}
63325 64331 {}
63325 65157 {}
63330 63337 {}
63330 63339 {}
63338 63341 {}
63340 63342 {}
63337 63341 {}
63339 63342 {}
63335 63337 {}
63335 63340 {}
63336 63338 {}
63336 63339 {}
63341 63343 {}
63341 64336 {}
63341 65169 {}
63342 65168 {}
63361 63362 {}
63345 63352 {}
63345 63354 {}
63353 63356 {}
63355 63357 {}
63352 63356 {}
63354 63357 {}
63350 63352 {}
63350 63355 {}
63351 63353 {}
63351 63354 {}
63356 63358 {}
63356 64335 {}
63356 64817 {}
63357 64816 {}
63360 63361 {}
63364 63390 {}
63366 63367 {}
63366 63368 {}
63366 64342 {}
63366 64834 {}
63391 63392 {}
63390 63392 {}
63390 63399 {}
63367 64835 {}
63370 63381 {}
63372 63373 {}
63372 64341 {}
63372 65500 {}
63382 63383 {}
63381 63383 {}
63381 63410 {}
63373 63374 {}
63373 65501 {}
63379 63380 {}
63379 63382 {}
63410 63411 {}
63410 63416 {}
63380 63381 {}
63383 63384 {}
63383 65513 {}
63384 63385 {}
63384 64347 {}
63384 65512 {}
63397 63398 {}
63388 63389 {}
63388 63391 {}
63399 63400 {}
63399 63405 {}
63389 63390 {}
63392 63393 {}
63392 64849 {}
63393 63394 {}
63393 64346 {}
63393 64848 {}
63396 63397 {}
63400 63406 {}
63405 63407 {}
63405 63434 {}
63406 63407 {}
63403 63404 {}
63403 63406 {}
63434 63435 {}
63434 63440 {}
63404 63405 {}
63407 63408 {}
63407 63409 {}
63407 64353 {}
63407 64858 {}
63408 64857 {}
63411 63417 {}
63416 63418 {}
63416 63423 {}
63417 63418 {}
63414 63415 {}
63414 63417 {}
63423 63424 {}
63423 63429 {}
63415 63416 {}
63418 63419 {}
63418 64352 {}
63418 65522 {}
63419 63420 {}
63419 65521 {}
63424 63430 {}
63429 63431 {}
63429 63447 {}
63430 63431 {}
63427 63428 {}
63427 63430 {}
63447 63448 {}
63447 63453 {}
63428 63429 {}
63431 63432 {}
63431 65531 {}
63432 63433 {}
63432 64358 {}
63432 65532 {}
63445 63446 {}
63435 63441 {}
63440 63442 {}
63440 63458 {}
63441 63442 {}
63438 63439 {}
63438 63441 {}
63458 63459 {}
63458 63464 {}
63439 63440 {}
63442 63443 {}
63442 64875 {}
63443 63444 {}
63443 64357 {}
63443 64876 {}
63448 63454 {}
63453 63455 {}
63453 63473 {}
63454 63455 {}
63451 63452 {}
63451 63454 {}
63473 63474 {}
63473 63479 {}
63452 63453 {}
63455 63456 {}
63455 65541 {}
63456 63457 {}
63456 64362 {}
63456 65542 {}
63471 63472 {}
63459 63465 {}
63464 63466 {}
63464 63484 {}
63465 63466 {}
63462 63463 {}
63462 63465 {}
63484 63485 {}
63484 63490 {}
63463 63464 {}
63466 63467 {}
63466 64888 {}
63467 63468 {}
63467 64361 {}
63467 64889 {}
63470 63471 {}
63474 63480 {}
63479 63481 {}
63479 63499 {}
63480 63481 {}
63477 63478 {}
63477 63480 {}
63499 63500 {}
63499 63505 {}
63478 63479 {}
63481 63482 {}
63481 64365 {}
63481 65554 {}
63482 63483 {}
63482 65553 {}
63497 63498 {}
63485 63491 {}
63490 63492 {}
63490 63510 {}
63491 63492 {}
63488 63489 {}
63488 63491 {}
63510 63511 {}
63510 63516 {}
63489 63490 {}
63492 63493 {}
63492 64366 {}
63492 64902 {}
63493 63494 {}
63493 64901 {}
63496 63497 {}
63500 63506 {}
63505 63507 {}
63505 63536 {}
63506 63507 {}
63503 63504 {}
63503 63506 {}
63536 63537 {}
63536 63542 {}
63504 63505 {}
63507 63508 {}
63507 65562 {}
63508 63509 {}
63508 64371 {}
63508 65563 {}
63523 63524 {}
63511 63517 {}
63516 63518 {}
63516 63525 {}
63517 63518 {}
63514 63515 {}
63514 63517 {}
63525 63526 {}
63525 63531 {}
63515 63516 {}
63518 63519 {}
63518 64915 {}
63519 63520 {}
63519 64370 {}
63519 64916 {}
63522 63523 {}
63526 63532 {}
63531 63533 {}
63531 63549 {}
63532 63533 {}
63529 63530 {}
63529 63532 {}
63549 63550 {}
63549 63555 {}
63530 63531 {}
63533 63534 {}
63533 64504 {}
63534 63535 {}
63534 64377 {}
63534 64505 {}
63547 63548 {}
63537 63543 {}
63542 63544 {}
63542 63560 {}
63543 63544 {}
63540 63541 {}
63540 63543 {}
63560 63561 {}
63560 63566 {}
63541 63542 {}
63544 63545 {}
63544 65250 {}
63545 63546 {}
63545 64376 {}
63545 65251 {}
63550 63556 {}
63555 63557 {}
63555 63585 {}
63556 63557 {}
63553 63554 {}
63553 63556 {}
63585 63586 {}
63585 63592 {}
63585 63618 {}
63554 63555 {}
63557 63558 {}
63557 63559 {}
63557 64517 {}
63558 64381 {}
63558 64518 {}
63561 63567 {}
63566 63568 {}
63566 63574 {}
63567 63568 {}
63564 63565 {}
63564 63567 {}
63574 63575 {}
63574 63581 {}
63574 63605 {}
63565 63566 {}
63568 63569 {}
63568 63570 {}
63568 65260 {}
63569 64380 {}
63569 65261 {}
63572 63573 {}
63575 63580 {}
63575 63604 {}
63581 63582 {}
63605 63607 {}
63580 63582 {}
63604 63606 {}
63578 63579 {}
63578 63581 {}
63607 63608 {}
63606 63609 {}
63579 63580 {}
63582 63583 {}
63582 63584 {}
63582 64385 {}
63582 65271 {}
63583 65270 {}
63598 63599 {}
63586 63591 {}
63586 63617 {}
63592 63593 {}
63618 63620 {}
63591 63593 {}
63617 63619 {}
63589 63590 {}
63589 63592 {}
63620 63621 {}
63619 63622 {}
63590 63591 {}
63593 63594 {}
63593 63595 {}
63593 64384 {}
63593 64531 {}
63594 64530 {}
63597 63598 {}
63602 63603 {}
63602 63609 {}
63628 63629 {}
63628 63634 {}
63603 63608 {}
63609 63610 {}
63608 63610 {}
63608 63628 {}
63610 63611 {}
63610 65280 {}
63611 63612 {}
63611 64391 {}
63611 65281 {}
63626 63627 {}
63615 63616 {}
63615 63622 {}
63639 63640 {}
63639 63645 {}
63616 63621 {}
63622 63623 {}
63621 63623 {}
63621 63639 {}
63623 63624 {}
63623 64544 {}
63624 63625 {}
63624 64390 {}
63624 64545 {}
63629 63635 {}
63634 63636 {}
63634 63663 {}
63635 63636 {}
63632 63633 {}
63632 63635 {}
63663 63664 {}
63663 63669 {}
63633 63634 {}
63636 63637 {}
63636 65290 {}
63637 63638 {}
63637 64397 {}
63637 65291 {}
63650 63651 {}
63640 63646 {}
63645 63647 {}
63645 63652 {}
63646 63647 {}
63643 63644 {}
63643 63646 {}
63652 63653 {}
63652 63658 {}
63644 63645 {}
63647 63648 {}
63647 64557 {}
63648 63649 {}
63648 64396 {}
63648 64558 {}
63653 63659 {}
63658 63660 {}
63658 63688 {}
63659 63660 {}
63656 63657 {}
63656 63659 {}
63688 63689 {}
63688 63695 {}
63688 63721 {}
63657 63658 {}
63660 63661 {}
63660 63662 {}
63660 64570 {}
63661 64401 {}
63661 64571 {}
63664 63670 {}
63669 63671 {}
63669 63677 {}
63670 63671 {}
63667 63668 {}
63667 63670 {}
63677 63678 {}
63677 63684 {}
63677 63708 {}
63668 63669 {}
63671 63672 {}
63671 63673 {}
63671 65300 {}
63672 64400 {}
63672 65301 {}
63675 63676 {}
63678 63683 {}
63678 63707 {}
63684 63685 {}
63708 63710 {}
63683 63685 {}
63707 63709 {}
63681 63682 {}
63681 63684 {}
63710 63711 {}
63709 63712 {}
63682 63683 {}
63685 63686 {}
63685 63687 {}
63685 64405 {}
63685 65311 {}
63686 65310 {}
63701 63702 {}
63689 63694 {}
63689 63720 {}
63695 63696 {}
63721 63723 {}
63694 63696 {}
63720 63722 {}
63692 63693 {}
63692 63695 {}
63723 63724 {}
63722 63725 {}
63693 63694 {}
63696 63697 {}
63696 63698 {}
63696 64404 {}
63696 64584 {}
63697 64583 {}
63700 63701 {}
63705 63706 {}
63705 63712 {}
63744 63745 {}
63744 63750 {}
63706 63711 {}
63712 63713 {}
63711 63713 {}
63711 63744 {}
63713 63714 {}
63713 65320 {}
63714 63715 {}
63714 64411 {}
63714 65321 {}
63731 63732 {}
63718 63719 {}
63718 63725 {}
63733 63734 {}
63733 63739 {}
63719 63724 {}
63725 63726 {}
63724 63726 {}
63724 63733 {}
63726 63727 {}
63726 64596 {}
63727 63728 {}
63727 64410 {}
63727 64597 {}
63730 63731 {}
63734 63740 {}
63739 63741 {}
63739 63758 {}
63740 63741 {}
63737 63738 {}
63737 63740 {}
63758 63759 {}
63758 63764 {}
63738 63739 {}
63741 63742 {}
63741 63743 {}
63741 64604 {}
63742 64416 {}
63742 64605 {}
63745 63751 {}
63750 63752 {}
63750 63769 {}
63751 63752 {}
63748 63749 {}
63748 63751 {}
63769 63770 {}
63769 63775 {}
63749 63750 {}
63752 63753 {}
63752 63754 {}
63752 65330 {}
63753 64417 {}
63753 65331 {}
63756 63757 {}
63759 63765 {}
63764 63766 {}
63764 63793 {}
63765 63766 {}
63762 63763 {}
63762 63765 {}
63793 63794 {}
63793 63799 {}
63793 63813 {}
63763 63764 {}
63766 63767 {}
63766 64618 {}
63767 63768 {}
63767 64422 {}
63767 64619 {}
63780 63781 {}
63770 63776 {}
63775 63777 {}
63775 63782 {}
63776 63777 {}
63773 63774 {}
63773 63776 {}
63782 63783 {}
63782 63788 {}
63782 63826 {}
63774 63775 {}
63777 63778 {}
63777 65340 {}
63778 63779 {}
63778 64423 {}
63778 65341 {}
63783 63789 {}
63783 63825 {}
63788 63790 {}
63826 63828 {}
63789 63790 {}
63825 63827 {}
63786 63787 {}
63786 63788 {}
63828 63829 {}
63827 63830 {}
63787 63789 {}
63790 63791 {}
63790 63792 {}
63790 64429 {}
63790 65349 {}
63791 65348 {}
63806 63807 {}
63794 63800 {}
63794 63812 {}
63799 63801 {}
63813 63815 {}
63800 63801 {}
63812 63814 {}
63797 63798 {}
63797 63799 {}
63815 63816 {}
63814 63817 {}
63798 63800 {}
63801 63802 {}
63801 63803 {}
63801 64428 {}
63801 64637 {}
63802 64636 {}
63805 63806 {}
63810 63811 {}
63810 63817 {}
63837 63838 {}
63837 63843 {}
63811 63816 {}
63817 63818 {}
63816 63818 {}
63816 63837 {}
63818 63819 {}
63818 63820 {}
63818 64432 {}
63818 64649 {}
63819 64650 {}
63823 63824 {}
63823 63830 {}
63848 63849 {}
63848 63854 {}
63824 63829 {}
63830 63831 {}
63829 63831 {}
63829 63848 {}
63831 63832 {}
63831 63833 {}
63831 64435 {}
63831 65360 {}
63832 65361 {}
63835 63836 {}
63838 63844 {}
63843 63845 {}
63843 63862 {}
63844 63845 {}
63841 63842 {}
63841 63844 {}
63862 63863 {}
63862 63868 {}
63842 63843 {}
63845 63846 {}
63845 63847 {}
63845 64662 {}
63846 64437 {}
63846 64663 {}
63849 63855 {}
63854 63856 {}
63854 63873 {}
63855 63856 {}
63852 63853 {}
63852 63855 {}
63873 63874 {}
63873 63879 {}
63853 63854 {}
63856 63857 {}
63856 63858 {}
63856 65370 {}
63857 64438 {}
63857 65371 {}
63860 63861 {}
63863 63869 {}
63868 63870 {}
63868 63897 {}
63869 63870 {}
63866 63867 {}
63866 63869 {}
63897 63898 {}
63897 63904 {}
63897 63930 {}
63867 63868 {}
63870 63871 {}
63870 64675 {}
63871 63872 {}
63871 64444 {}
63871 64676 {}
63884 63885 {}
63874 63880 {}
63879 63881 {}
63879 63886 {}
63880 63881 {}
63877 63878 {}
63877 63880 {}
63886 63887 {}
63886 63893 {}
63886 63917 {}
63878 63879 {}
63881 63882 {}
63881 65380 {}
63882 63883 {}
63882 64443 {}
63882 65381 {}
63887 63892 {}
63887 63916 {}
63893 63894 {}
63917 63919 {}
63892 63894 {}
63916 63918 {}
63890 63891 {}
63890 63893 {}
63919 63920 {}
63918 63921 {}
63891 63892 {}
63894 63895 {}
63894 63896 {}
63894 64447 {}
63894 65391 {}
63895 65390 {}
63910 63911 {}
63898 63903 {}
63898 63929 {}
63904 63905 {}
63930 63932 {}
63903 63905 {}
63929 63931 {}
63901 63902 {}
63901 63904 {}
63932 63933 {}
63931 63934 {}
63902 63903 {}
63905 63906 {}
63905 63907 {}
63905 64448 {}
63905 64684 {}
63906 64683 {}
63909 63910 {}
63914 63915 {}
63914 63921 {}
63953 63954 {}
63953 63959 {}
63915 63920 {}
63921 63922 {}
63920 63922 {}
63920 63953 {}
63922 63923 {}
63922 65400 {}
63923 63924 {}
63923 64452 {}
63923 65401 {}
63940 63941 {}
63927 63928 {}
63927 63934 {}
63942 63943 {}
63942 63948 {}
63928 63933 {}
63934 63935 {}
63933 63935 {}
63933 63942 {}
63935 63936 {}
63935 64701 {}
63936 63937 {}
63936 64451 {}
63936 64702 {}
63939 63940 {}
63943 63949 {}
63948 63950 {}
63948 63966 {}
63949 63950 {}
63946 63947 {}
63946 63949 {}
63966 63967 {}
63966 63972 {}
63947 63948 {}
63950 63951 {}
63950 64714 {}
63951 63952 {}
63951 64456 {}
63951 64715 {}
63964 63965 {}
63954 63960 {}
63959 63961 {}
63959 63977 {}
63960 63961 {}
63957 63958 {}
63957 63960 {}
63977 63978 {}
63977 63983 {}
63958 63959 {}
63961 63962 {}
63961 65410 {}
63962 63963 {}
63962 64455 {}
63962 65411 {}
63967 63973 {}
63972 63974 {}
63972 63990 {}
63973 63974 {}
63970 63971 {}
63970 63973 {}
63990 63991 {}
63990 63996 {}
63990 64019 {}
63971 63972 {}
63974 63975 {}
63974 63976 {}
63974 64459 {}
63974 64727 {}
63975 64728 {}
63978 63984 {}
63983 63985 {}
63983 64001 {}
63984 63985 {}
63981 63982 {}
63981 63984 {}
64001 64002 {}
64001 64007 {}
64001 64032 {}
63982 63983 {}
63985 63986 {}
63985 65418 {}
63986 63987 {}
63986 65419 {}
63991 63997 {}
63991 64018 {}
63996 63998 {}
64019 64021 {}
63997 63998 {}
64018 64020 {}
63994 63995 {}
63994 63996 {}
64021 64022 {}
64020 64023 {}
63995 63997 {}
63998 63999 {}
63998 64000 {}
63998 64462 {}
63998 64735 {}
63999 64736 {}
64012 64013 {}
64002 64008 {}
64002 64031 {}
64007 64009 {}
64032 64034 {}
64008 64009 {}
64031 64033 {}
64005 64006 {}
64005 64007 {}
64034 64035 {}
64033 64036 {}
64006 64008 {}
64009 64010 {}
64009 64011 {}
64009 64463 {}
64009 65431 {}
64010 65430 {}
64016 64017 {}
64016 64023 {}
64043 64044 {}
64043 64050 {}
64043 64073 {}
64017 64022 {}
64023 64024 {}
64022 64024 {}
64022 64043 {}
64024 64025 {}
64024 64026 {}
64024 64749 {}
64025 64469 {}
64025 64748 {}
64029 64030 {}
64029 64036 {}
64054 64055 {}
64054 64061 {}
64054 64086 {}
64030 64035 {}
64036 64037 {}
64035 64037 {}
64035 64054 {}
64037 64038 {}
64037 64039 {}
64037 65440 {}
64038 64468 {}
64038 65441 {}
64041 64042 {}
64044 64049 {}
64044 64072 {}
64050 64051 {}
64073 64075 {}
64049 64051 {}
64072 64074 {}
64047 64048 {}
64047 64049 {}
64075 64076 {}
64074 64077 {}
64048 64050 {}
64051 64052 {}
64051 64053 {}
64051 64472 {}
64051 64768 {}
64052 64767 {}
64055 64060 {}
64055 64085 {}
64061 64062 {}
64086 64088 {}
64060 64062 {}
64085 64087 {}
64058 64059 {}
64058 64060 {}
64088 64089 {}
64087 64090 {}
64059 64061 {}
64062 64063 {}
64062 64064 {}
64062 64473 {}
64062 65451 {}
64063 65450 {}
64066 64067 {}
64070 64071 {}
64070 64077 {}
64108 64109 {}
64108 64115 {}
64108 64127 {}
64071 64076 {}
64077 64078 {}
64076 64078 {}
64076 64108 {}
64078 64079 {}
64078 64080 {}
64078 64780 {}
64079 64480 {}
64079 64781 {}
64083 64084 {}
64083 64090 {}
64097 64098 {}
64097 64104 {}
64097 64140 {}
64084 64089 {}
64090 64091 {}
64089 64091 {}
64089 64097 {}
64091 64092 {}
64091 64093 {}
64091 65458 {}
64092 64479 {}
64092 65459 {}
64095 64096 {}
64098 64103 {}
64098 64141 {}
64104 64105 {}
64140 64142 {}
64103 64105 {}
64141 64143 {}
64101 64102 {}
64101 64104 {}
64142 64144 {}
64143 64145 {}
64102 64103 {}
64105 64106 {}
64105 64107 {}
64105 64484 {}
64105 65469 {}
64106 65468 {}
64121 64122 {}
64109 64114 {}
64109 64128 {}
64115 64116 {}
64127 64129 {}
64114 64116 {}
64128 64130 {}
64112 64113 {}
64112 64114 {}
64129 64131 {}
64130 64132 {}
64113 64115 {}
64116 64117 {}
64116 64793 {}
64117 64118 {}
64117 64483 {}
64117 64794 {}
64120 64121 {}
64125 64126 {}
64125 64132 {}
64151 64152 {}
64151 64160 {}
64151 64162 {}
64126 64131 {}
64132 64133 {}
64131 64133 {}
64131 64151 {}
64133 64134 {}
64133 64808 {}
64134 64135 {}
64134 64489 {}
64134 64807 {}
64149 64150 {}
64138 64139 {}
64138 64145 {}
64166 64167 {}
64166 64175 {}
64139 64144 {}
64145 64146 {}
64144 64146 {}
64144 64166 {}
64146 64147 {}
64146 65481 {}
64147 64148 {}
64147 64490 {}
64147 65480 {}
64152 64159 {}
64152 64161 {}
64160 64163 {}
64162 64164 {}
64159 64163 {}
64161 64164 {}
64157 64159 {}
64157 64162 {}
64158 64160 {}
64158 64161 {}
64163 64165 {}
64163 64496 {}
64163 64822 {}
64164 64821 {}
64179 64180 {}
64167 64174 {}
64175 64176 {}
64174 64176 {}
64172 64174 {}
64173 64175 {}
64176 64177 {}
64176 64178 {}
64176 64495 {}
64176 65491 {}
64177 65492 {}
64184 64185 {}
64188 64189 {}
64192 64193 {}
64193 64194 {}
64197 64198 {}
64201 64202 {}
64205 64206 {}
64209 64210 {}
64215 64216 {}
64214 64215 {}
64219 64220 {}
64225 64226 {}
64224 64225 {}
64231 64232 {}
64230 64231 {}
64235 64236 {}
64236 64237 {}
64240 64241 {}
64246 64247 {}
64245 64246 {}
64250 64251 {}
64256 64257 {}
64255 64256 {}
64260 64261 {}
64261 64262 {}
64265 64266 {}
64266 64267 {}
64272 64273 {}
64271 64272 {}
64276 64277 {}
64280 64281 {}
64286 64287 {}
64285 64286 {}
64292 64293 {}
64291 64292 {}
64296 64297 {}
64300 64301 {}
64301 64302 {}
64307 64308 {}
64306 64307 {}
64311 64312 {}
64317 64318 {}
64316 64317 {}
64323 64324 {}
64322 64323 {}
64329 64330 {}
64328 64329 {}
64333 64334 {}
64339 64340 {}
64338 64339 {}
64344 64345 {}
64350 64351 {}
64349 64350 {}
64355 64356 {}
64359 64360 {}
64363 64364 {}
64368 64369 {}
64374 64375 {}
64373 64374 {}
64378 64379 {}
64382 64383 {}
64388 64389 {}
64387 64388 {}
64394 64395 {}
64393 64394 {}
64398 64399 {}
64402 64403 {}
64408 64409 {}
64407 64408 {}
64414 64415 {}
64413 64414 {}
64420 64421 {}
64419 64420 {}
64426 64427 {}
64425 64426 {}
64430 64431 {}
64434 64436 {}
64441 64442 {}
64440 64441 {}
64445 64446 {}
64449 64450 {}
64453 64454 {}
64457 64458 {}
64466 64467 {}
64465 64466 {}
64470 64471 {}
64476 64477 {}
64475 64476 {}
64481 64482 {}
64487 64488 {}
64486 64487 {}
64493 64494 {}
64492 64493 {}
64497 64498 {}
64501 64502 {}
64501 65574 {}
64510 64511 {}
64508 64509 {}
64506 64507 {}
64506 64928 {}
64509 64510 {}
64514 64515 {}
64514 65579 {}
64523 64524 {}
64521 64522 {}
64519 64520 {}
64519 64938 {}
64522 64523 {}
64527 64528 {}
64527 65588 {}
64536 64537 {}
64534 64535 {}
64532 64533 {}
64532 64943 {}
64535 64536 {}
64540 64541 {}
64541 64542 {}
64541 65593 {}
64550 64551 {}
64548 64549 {}
64546 64547 {}
64546 64953 {}
64549 64550 {}
64554 64555 {}
64554 65600 {}
64563 64564 {}
64561 64562 {}
64559 64560 {}
64559 64968 {}
64562 64563 {}
64567 64568 {}
64567 65607 {}
64576 64577 {}
64574 64575 {}
64572 64573 {}
64572 64973 {}
64575 64576 {}
64580 64581 {}
64580 65616 {}
64589 64590 {}
64587 64588 {}
64585 64586 {}
64585 64983 {}
64588 64589 {}
64593 64594 {}
64593 65623 {}
64602 64603 {}
64600 64601 {}
64598 64599 {}
64598 64993 {}
64601 64602 {}
64606 64607 {}
64606 65009 {}
64614 64615 {}
64611 64612 {}
64612 64613 {}
64612 65628 {}
64616 64617 {}
64615 64616 {}
64620 64621 {}
64620 65014 {}
64629 64630 {}
64627 64628 {}
64625 64626 {}
64625 65637 {}
64628 64629 {}
64633 64634 {}
64633 65644 {}
64642 64643 {}
64640 64641 {}
64638 64639 {}
64638 65024 {}
64641 64642 {}
64646 64647 {}
64646 65651 {}
64655 64656 {}
64653 64654 {}
64651 64652 {}
64651 65039 {}
64654 64655 {}
64659 64660 {}
64659 65658 {}
64668 64669 {}
64666 64667 {}
64664 64665 {}
64664 65044 {}
64667 64668 {}
64672 64673 {}
64672 65665 {}
64681 64682 {}
64679 64680 {}
64677 64678 {}
64677 65054 {}
64680 64681 {}
64685 64686 {}
64685 65070 {}
64694 64695 {}
64692 64693 {}
64690 64691 {}
64690 65672 {}
64693 64694 {}
64698 64699 {}
64698 65679 {}
64707 64708 {}
64705 64706 {}
64703 64704 {}
64703 65075 {}
64706 64707 {}
64711 64712 {}
64711 65686 {}
64720 64721 {}
64718 64719 {}
64716 64717 {}
64716 65090 {}
64719 64720 {}
64724 64725 {}
64724 65693 {}
64733 64734 {}
64731 64732 {}
64729 64730 {}
64729 65095 {}
64732 64733 {}
64737 64738 {}
64737 65105 {}
64746 64747 {}
64744 64745 {}
64742 64743 {}
64742 65700 {}
64745 64746 {}
64750 64751 {}
64750 65115 {}
64759 64760 {}
64757 64758 {}
64755 64756 {}
64755 65705 {}
64758 64759 {}
64763 64764 {}
64764 64765 {}
64764 65712 {}
64773 64774 {}
64771 64772 {}
64769 64770 {}
64769 65125 {}
64772 64773 {}
64777 64778 {}
64777 65719 {}
64786 64787 {}
64784 64785 {}
64782 64783 {}
64782 65135 {}
64785 64786 {}
64790 64791 {}
64790 65728 {}
64799 64800 {}
64797 64798 {}
64795 64796 {}
64795 65145 {}
64798 64799 {}
64803 64804 {}
64804 64805 {}
64804 65735 {}
64814 64815 {}
64812 64813 {}
64809 64810 {}
64810 64811 {}
64810 65155 {}
64813 64814 {}
64818 64819 {}
64818 65742 {}
64827 64828 {}
64825 64826 {}
64823 64824 {}
64823 65166 {}
64826 64827 {}
64831 64832 {}
64831 65747 {}
64840 64841 {}
64838 64839 {}
64836 64837 {}
64836 65176 {}
64839 64840 {}
64844 64845 {}
64845 64846 {}
64845 65754 {}
64855 64856 {}
64853 64854 {}
64850 64851 {}
64851 64852 {}
64851 65186 {}
64854 64855 {}
64859 64860 {}
64859 65197 {}
64868 64869 {}
64866 64867 {}
64864 64865 {}
64864 65763 {}
64867 64868 {}
64872 64873 {}
64872 65770 {}
64881 64882 {}
64879 64880 {}
64877 64878 {}
64877 65212 {}
64880 64881 {}
64885 64886 {}
64885 65775 {}
64894 64895 {}
64892 64893 {}
64890 64891 {}
64890 65217 {}
64893 64894 {}
64898 64899 {}
64898 65782 {}
64906 64907 {}
64903 64904 {}
64904 64905 {}
64904 65227 {}
64908 64909 {}
64907 64908 {}
64912 64913 {}
64912 65789 {}
64921 64922 {}
64919 64920 {}
64917 64918 {}
64917 65243 {}
64920 64921 {}
64925 64926 {}
64925 65248 {}
64931 64932 {}
64929 64930 {}
64930 64931 {}
64935 64936 {}
64935 65258 {}
64939 64940 {}
64941 64942 {}
64940 64941 {}
64951 64952 {}
64949 64950 {}
64947 64948 {}
64947 65268 {}
64950 64951 {}
64961 64962 {}
64959 64960 {}
64957 64958 {}
64957 65278 {}
64960 64961 {}
64965 64966 {}
64965 65288 {}
64971 64972 {}
64969 64970 {}
64970 64971 {}
64981 64982 {}
64979 64980 {}
64977 64978 {}
64977 65298 {}
64980 64981 {}
64991 64992 {}
64989 64990 {}
64987 64988 {}
64987 65308 {}
64990 64991 {}
65001 65002 {}
64999 65000 {}
64997 64998 {}
64997 65318 {}
65000 65001 {}
65005 65006 {}
65006 65007 {}
65006 65328 {}
65012 65013 {}
65010 65011 {}
65011 65012 {}
65022 65023 {}
65020 65021 {}
65018 65019 {}
65018 65338 {}
65021 65022 {}
65032 65033 {}
65030 65031 {}
65028 65029 {}
65028 65353 {}
65031 65032 {}
65036 65037 {}
65036 65358 {}
65040 65041 {}
65042 65043 {}
65041 65042 {}
65052 65053 {}
65050 65051 {}
65048 65049 {}
65048 65368 {}
65051 65052 {}
65062 65063 {}
65060 65061 {}
65058 65059 {}
65058 65378 {}
65061 65062 {}
65066 65067 {}
65067 65068 {}
65067 65388 {}
65073 65074 {}
65071 65072 {}
65072 65073 {}
65083 65084 {}
65081 65082 {}
65079 65080 {}
65079 65398 {}
65082 65083 {}
65087 65088 {}
65087 65408 {}
65091 65092 {}
65093 65094 {}
65092 65093 {}
65103 65104 {}
65101 65102 {}
65099 65100 {}
65099 65423 {}
65102 65103 {}
65113 65114 {}
65111 65112 {}
65109 65110 {}
65109 65428 {}
65112 65113 {}
65123 65124 {}
65121 65122 {}
65119 65120 {}
65119 65438 {}
65122 65123 {}
65133 65134 {}
65131 65132 {}
65129 65130 {}
65129 65448 {}
65132 65133 {}
65143 65144 {}
65141 65142 {}
65139 65140 {}
65139 65463 {}
65142 65143 {}
65153 65154 {}
65151 65152 {}
65149 65150 {}
65149 65473 {}
65152 65153 {}
65164 65165 {}
65162 65163 {}
65159 65160 {}
65160 65161 {}
65160 65478 {}
65163 65164 {}
65174 65175 {}
65172 65173 {}
65170 65171 {}
65170 65489 {}
65173 65174 {}
65184 65185 {}
65182 65183 {}
65180 65181 {}
65180 65505 {}
65183 65184 {}
65195 65196 {}
65193 65194 {}
65190 65191 {}
65191 65192 {}
65191 65510 {}
65194 65195 {}
65205 65206 {}
65203 65204 {}
65201 65202 {}
65201 65526 {}
65204 65205 {}
65209 65210 {}
65209 65536 {}
65215 65216 {}
65213 65214 {}
65214 65215 {}
65225 65226 {}
65223 65224 {}
65221 65222 {}
65221 65546 {}
65224 65225 {}
65236 65237 {}
65234 65235 {}
65231 65232 {}
65232 65233 {}
65232 65551 {}
65235 65236 {}
65240 65241 {}
65240 65567 {}
65246 65247 {}
65244 65245 {}
65245 65246 {}
65256 65257 {}
65254 65255 {}
65252 65253 {}
65252 65572 {}
65255 65256 {}
65266 65267 {}
65264 65265 {}
65262 65263 {}
65262 65581 {}
65265 65266 {}
65276 65277 {}
65274 65275 {}
65272 65273 {}
65272 65586 {}
65275 65276 {}
65286 65287 {}
65284 65285 {}
65282 65283 {}
65282 65595 {}
65285 65286 {}
65296 65297 {}
65294 65295 {}
65292 65293 {}
65292 65602 {}
65295 65296 {}
65306 65307 {}
65304 65305 {}
65302 65303 {}
65302 65609 {}
65305 65306 {}
65316 65317 {}
65314 65315 {}
65312 65313 {}
65312 65614 {}
65315 65316 {}
65326 65327 {}
65324 65325 {}
65322 65323 {}
65322 65621 {}
65325 65326 {}
65336 65337 {}
65334 65335 {}
65332 65333 {}
65332 65630 {}
65335 65336 {}
65346 65347 {}
65344 65345 {}
65342 65343 {}
65342 65635 {}
65345 65346 {}
65350 65351 {}
65350 65642 {}
65356 65357 {}
65354 65355 {}
65355 65356 {}
65366 65367 {}
65364 65365 {}
65362 65363 {}
65362 65649 {}
65365 65366 {}
65376 65377 {}
65374 65375 {}
65372 65373 {}
65372 65656 {}
65375 65376 {}
65386 65387 {}
65384 65385 {}
65382 65383 {}
65382 65663 {}
65385 65386 {}
65396 65397 {}
65394 65395 {}
65392 65393 {}
65392 65670 {}
65395 65396 {}
65406 65407 {}
65404 65405 {}
65402 65403 {}
65402 65677 {}
65405 65406 {}
65416 65417 {}
65414 65415 {}
65412 65413 {}
65412 65684 {}
65415 65416 {}
65420 65421 {}
65420 65691 {}
65426 65427 {}
65424 65425 {}
65425 65426 {}
65436 65437 {}
65434 65435 {}
65432 65433 {}
65432 65698 {}
65435 65436 {}
65446 65447 {}
65444 65445 {}
65442 65443 {}
65442 65707 {}
65445 65446 {}
65456 65457 {}
65454 65455 {}
65452 65453 {}
65452 65714 {}
65455 65456 {}
65460 65461 {}
65460 65721 {}
65466 65467 {}
65464 65465 {}
65465 65466 {}
65470 65471 {}
65470 65726 {}
65476 65477 {}
65474 65475 {}
65475 65476 {}
65487 65488 {}
65485 65486 {}
65482 65483 {}
65483 65484 {}
65483 65733 {}
65486 65487 {}
65496 65497 {}
65493 65494 {}
65494 65495 {}
65494 65740 {}
65498 65499 {}
65497 65498 {}
65502 65503 {}
65502 65749 {}
65506 65507 {}
65508 65509 {}
65507 65508 {}
65519 65520 {}
65517 65518 {}
65514 65515 {}
65515 65516 {}
65515 65756 {}
65518 65519 {}
65523 65524 {}
65523 65761 {}
65529 65530 {}
65527 65528 {}
65528 65529 {}
65533 65534 {}
65533 65768 {}
65539 65540 {}
65537 65538 {}
65538 65539 {}
65543 65544 {}
65543 65777 {}
65549 65550 {}
65547 65548 {}
65548 65549 {}
65560 65561 {}
65558 65559 {}
65555 65556 {}
65556 65557 {}
65556 65784 {}
65559 65560 {}
65564 65565 {}
65564 65791 {}
65570 65571 {}
65568 65569 {}
65569 65570 {}
65577 65578 {}
65575 65576 {}
65576 65577 {}
65582 65583 {}
65584 65585 {}
65583 65584 {}
65591 65592 {}
65589 65590 {}
65590 65591 {}
65598 65599 {}
65596 65597 {}
65597 65598 {}
65603 65604 {}
65605 65606 {}
65604 65605 {}
65610 65611 {}
65612 65613 {}
65611 65612 {}
65619 65620 {}
65617 65618 {}
65618 65619 {}
65626 65627 {}
65624 65625 {}
65625 65626 {}
65633 65634 {}
65631 65632 {}
65632 65633 {}
65640 65641 {}
65638 65639 {}
65639 65640 {}
65647 65648 {}
65645 65646 {}
65646 65647 {}
65654 65655 {}
65652 65653 {}
65653 65654 {}
65661 65662 {}
65659 65660 {}
65660 65661 {}
65668 65669 {}
65666 65667 {}
65667 65668 {}
65675 65676 {}
65673 65674 {}
65674 65675 {}
65682 65683 {}
65680 65681 {}
65681 65682 {}
65689 65690 {}
65687 65688 {}
65688 65689 {}
65696 65697 {}
65694 65695 {}
65695 65696 {}
65703 65704 {}
65701 65702 {}
65702 65703 {}
65710 65711 {}
65708 65709 {}
65709 65710 {}
65717 65718 {}
65715 65716 {}
65716 65717 {}
65722 65723 {}
65724 65725 {}
65723 65724 {}
65731 65732 {}
65729 65730 {}
65730 65731 {}
65738 65739 {}
65736 65737 {}
65737 65738 {}
65745 65746 {}
65743 65744 {}
65744 65745 {}
65750 65751 {}
65752 65753 {}
65751 65752 {}
65757 65758 {}
65759 65760 {}
65758 65759 {}
65766 65767 {}
65764 65765 {}
65765 65766 {}
65773 65774 {}
65771 65772 {}
65772 65773 {}
65778 65779 {}
65780 65781 {}
65779 65780 {}
65785 65786 {}
65787 65788 {}
65786 65787 {}
65792 65793 {}
65794 65795 {}
65793 65794 {}
65798 65799 {}
65802 65803 {}
65806 65807 {}
65810 65811 {}
65814 65815 {}
65818 65819 {}
65822 65823 {}
65826 65827 {}
65830 65831 {}
65834 65835 {}
65838 65839 {}
65842 65843 {}
65846 65847 {}
65850 65851 {}
65854 65855 {}
65858 65859 {}
65862 65863 {}
65866 65867 {}
65870 65871 {}
65874 65875 {}
65878 65879 {}
65882 65883 {}
65886 65887 {}
65890 65891 {}
65894 65895 {}
65898 65899 {}
65902 65903 {}
65906 65907 {}
65910 65911 {}
65914 65915 {}
65918 65919 {}
65922 65923 {}
65926 65927 {}
65930 65931 {}
65934 65935 {}
65938 65939 {}
65942 65943 {}
65946 65947 {}
65950 65951 {}
65954 65955 {}
65958 65959 {}
65962 65963 {}
65966 65967 {}
65970 65971 {}
65974 65975 {}
65978 65979 {}
65982 65983 {}
65986 65987 {}
65990 65991 {}
65994 65995 {}
65998 65999 {}
66002 66003 {}
66006 66007 {}
66010 66011 {}
66014 66015 {}
66018 66019 {}
66022 66023 {}
66026 66027 {}
66030 66031 {}
66034 66035 {}
66038 66039 {}
66042 66043 {}
66046 66047 {}
66050 66051 {}
66054 66055 {}
66058 66059 {}
66062 66063 {}
66066 66067 {}
66070 66071 {}
66074 66075 {}
66078 66079 {}
66082 66083 {}
66086 66087 {}
66090 66091 {}
66094 66095 {}
66098 66099 {}
66102 66103 {}
66106 66107 {}
66110 66111 {}
66114 66115 {}
66118 66119 {}
66122 66123 {}
66126 66127 {}
66130 66131 {}
66134 66135 {}
66138 66139 {}
66142 66143 {}
66146 66147 {}
66150 66151 {}
66154 66155 {}
66158 66159 {}
66162 66163 {}
66166 66167 {}
66170 66171 {}
66174 66175 {}
66178 66179 {}
66182 66183 {}
66186 66187 {}
66190 66191 {}
66194 66195 {}
66198 66199 {}
66202 66203 {}
66206 66207 {}
66210 66211 {}
66214 66215 {}
66218 66219 {}
66222 66223 {}
66226 66227 {}
66230 66231 {}
66234 66235 {}
66238 66239 {}
66242 66243 {}
66246 66247 {}
66250 66251 {}
66254 66255 {}
66258 66259 {}
66262 66263 {}
66266 66267 {}
66270 66271 {}
66274 66275 {}
66278 66279 {}
66282 66283 {}
66286 66287 {}
66290 66291 {}
66294 66295 {}
66298 66299 {}
66302 66303 {}
66306 66307 {}
66312 66314 {}
66310 66313 {}
66313 66315 {}
66315 66316 {}
66318 66319 {}
66317 66318 {}
66325 66327 {}
66323 66326 {}
66326 66328 {}
66328 66329 {}
66330 66331 {}
66336 66338 {}
66334 66337 {}
66337 66339 {}
66339 66340 {}
66341 66342 {}
66347 66349 {}
66345 66348 {}
66348 66350 {}
66350 66351 {}
66353 66354 {}
66352 66353 {}
66360 66362 {}
66358 66361 {}
66361 66363 {}
66363 66364 {}
66366 66367 {}
66365 66366 {}
66373 66375 {}
66371 66374 {}
66374 66376 {}
66376 66377 {}
66378 66379 {}
66384 66386 {}
66382 66385 {}
66385 66387 {}
66387 66388 {}
66389 66390 {}
66395 66397 {}
66393 66396 {}
66396 66398 {}
66398 66399 {}
66400 66401 {}
66406 66408 {}
66404 66407 {}
66407 66409 {}
66409 66410 {}
66412 66413 {}
66411 66412 {}
66419 66421 {}
66417 66420 {}
66420 66422 {}
66422 66423 {}
66424 66425 {}
66430 66432 {}
66428 66431 {}
66431 66433 {}
66433 66434 {}
66436 66437 {}
66435 66436 {}
66443 66445 {}
66441 66444 {}
66444 66446 {}
66446 66447 {}
66449 66450 {}
66448 66449 {}
66456 66458 {}
66454 66457 {}
66457 66459 {}
66459 66460 {}
66461 66462 {}
66467 66469 {}
66465 66468 {}
66468 66470 {}
66470 66471 {}
66472 66473 {}
66478 66480 {}
66476 66479 {}
66479 66481 {}
66481 66482 {}
66484 66485 {}
66483 66484 {}
66491 66493 {}
66489 66492 {}
66492 66494 {}
66494 66495 {}
66497 66498 {}
66496 66497 {}
66504 66506 {}
66502 66505 {}
66505 66507 {}
66507 66508 {}
66509 66510 {}
66515 66517 {}
66513 66516 {}
66516 66518 {}
66518 66519 {}
66520 66521 {}
66526 66528 {}
66524 66527 {}
66527 66529 {}
66529 66530 {}
66531 66532 {}
66537 66539 {}
66535 66538 {}
66538 66540 {}
66540 66541 {}
66542 66543 {}
66548 66550 {}
66546 66549 {}
66549 66551 {}
66551 66552 {}
66553 66554 {}
66559 66561 {}
66557 66560 {}
66560 66562 {}
66562 66563 {}
66565 66566 {}
66564 66565 {}
66572 66574 {}
66570 66573 {}
66573 66575 {}
66575 66576 {}
66578 66579 {}
66577 66578 {}
66585 66587 {}
66583 66586 {}
66586 66588 {}
66588 66589 {}
66591 66592 {}
66590 66591 {}
66598 66600 {}
66596 66599 {}
66599 66601 {}
66601 66602 {}
66604 66605 {}
66603 66604 {}
66611 66613 {}
66609 66612 {}
66612 66614 {}
66614 66615 {}
66617 66618 {}
66616 66617 {}
66624 66626 {}
66622 66625 {}
66625 66627 {}
66627 66628 {}
66629 66630 {}
66635 66637 {}
66633 66636 {}
66636 66638 {}
66638 66639 {}
66641 66642 {}
66640 66641 {}
66648 66650 {}
66646 66649 {}
66649 66651 {}
66651 66652 {}
66654 66655 {}
66653 66654 {}
66661 66663 {}
66659 66662 {}
66662 66664 {}
66664 66665 {}
66666 66667 {}
66672 66674 {}
66670 66673 {}
66673 66675 {}
66675 66676 {}
66678 66679 {}
66677 66678 {}
66685 66687 {}
66683 66686 {}
66686 66688 {}
66688 66689 {}
66690 66691 {}
66696 66698 {}
66694 66697 {}
66697 66699 {}
66699 66700 {}
66702 66703 {}
66701 66702 {}
66709 66711 {}
66707 66710 {}
66710 66712 {}
66712 66713 {}
66715 66716 {}
66714 66715 {}
66722 66724 {}
66720 66723 {}
66723 66725 {}
66725 66726 {}
66727 66728 {}
66733 66735 {}
66731 66734 {}
66734 66736 {}
66736 66737 {}
66739 66740 {}
66738 66739 {}
66746 66748 {}
66744 66747 {}
66747 66749 {}
66749 66750 {}
66751 66752 {}
66757 66759 {}
66755 66758 {}
66758 66760 {}
66760 66761 {}
66763 66764 {}
66762 66763 {}
66770 66772 {}
66768 66771 {}
66771 66773 {}
66773 66774 {}
66775 66776 {}
66781 66783 {}
66779 66782 {}
66782 66784 {}
66784 66785 {}
66787 66788 {}
66786 66787 {}
66794 66796 {}
66792 66795 {}
66795 66797 {}
66797 66798 {}
66800 66801 {}
66799 66800 {}
66807 66809 {}
66805 66808 {}
66808 66810 {}
66810 66811 {}
66812 66813 {}
66818 66820 {}
66816 66819 {}
66819 66821 {}
66821 66822 {}
66823 66824 {}
66829 66831 {}
66827 66830 {}
66830 66832 {}
66832 66833 {}
66835 66836 {}
66834 66835 {}
66842 66844 {}
66840 66843 {}
66843 66845 {}
66845 66846 {}
66848 66849 {}
66847 66848 {}
66855 66857 {}
66853 66856 {}
66856 66858 {}
66858 66859 {}
66860 66861 {}
66866 66868 {}
66864 66867 {}
66867 66869 {}
66869 66870 {}
66872 66873 {}
66871 66872 {}
66879 66881 {}
66877 66880 {}
66880 66882 {}
66882 66883 {}
66885 66886 {}
66884 66885 {}
66892 66894 {}
66890 66893 {}
66893 66895 {}
66895 66896 {}
66898 66899 {}
66897 66898 {}
66905 66907 {}
66903 66906 {}
66906 66908 {}
66908 66909 {}
66911 66912 {}
66910 66911 {}
66918 66920 {}
66916 66919 {}
66919 66921 {}
66921 66922 {}
66923 66924 {}
66929 66931 {}
66927 66930 {}
66930 66932 {}
66932 66933 {}
66934 66935 {}
66940 66942 {}
66938 66941 {}
66941 66943 {}
66943 66944 {}
66945 66946 {}
66951 66953 {}
66949 66952 {}
66952 66954 {}
66954 66955 {}
66956 66957 {}
66962 66964 {}
66960 66963 {}
66963 66965 {}
66965 66966 {}
66967 66968 {}
66973 66975 {}
66971 66974 {}
66974 66976 {}
66976 66977 {}
66979 66980 {}
66978 66979 {}
66986 66988 {}
66984 66987 {}
66987 66989 {}
66989 66990 {}
66992 66993 {}
66991 66992 {}
66999 67001 {}
66997 67000 {}
67000 67002 {}
67002 67003 {}
67005 67006 {}
67004 67005 {}
67012 67014 {}
67010 67013 {}
67013 67015 {}
67015 67016 {}
67018 67019 {}
67017 67018 {}
67025 67027 {}
67023 67026 {}
67026 67028 {}
67028 67029 {}
67031 67032 {}
67030 67031 {}
67038 67040 {}
67036 67039 {}
67039 67041 {}
67041 67042 {}
67044 67045 {}
67043 67044 {}
67051 67053 {}
67049 67052 {}
67052 67054 {}
67054 67055 {}
67056 67057 {}
67062 67064 {}
67060 67063 {}
67063 67065 {}
67065 67066 {}
67067 67068 {}
67073 67075 {}
67071 67074 {}
67074 67076 {}
67076 67077 {}
67078 67079 {}
67084 67086 {}
67082 67085 {}
67085 67087 {}
67087 67088 {}
67089 67090 {}
67095 67097 {}
67093 67096 {}
67096 67098 {}
67098 67099 {}
67100 67101 {}
67106 67108 {}
67104 67107 {}
67107 67109 {}
67109 67110 {}
67112 67113 {}
67111 67112 {}
67119 67121 {}
67117 67120 {}
67120 67122 {}
67122 67123 {}
67125 67126 {}
67124 67125 {}
67132 67134 {}
67130 67133 {}
67133 67135 {}
67135 67136 {}
67137 67138 {}
67143 67145 {}
67141 67144 {}
67144 67146 {}
67146 67147 {}
67148 67149 {}
67154 67156 {}
67152 67155 {}
67155 67157 {}
67157 67158 {}
67159 67160 {}
67165 67167 {}
67163 67166 {}
67166 67168 {}
67168 67169 {}
67171 67172 {}
67170 67171 {}
67178 67180 {}
67176 67179 {}
67179 67181 {}
67181 67182 {}
67183 67184 {}
67189 67191 {}
67187 67190 {}
67190 67192 {}
67192 67193 {}
67194 67195 {}
67200 67202 {}
67198 67201 {}
67201 67203 {}
67203 67204 {}
67205 67206 {}
67211 67213 {}
67209 67212 {}
67212 67214 {}
67214 67215 {}
67217 67218 {}
67216 67217 {}
67224 67226 {}
67222 67225 {}
67225 67227 {}
67227 67228 {}
67229 67230 {}
67235 67237 {}
67233 67236 {}
67236 67238 {}
67238 67239 {}
67241 67242 {}
67240 67241 {}
67248 67250 {}
67246 67249 {}
67249 67251 {}
67251 67252 {}
67254 67255 {}
67253 67254 {}
67261 67263 {}
67259 67262 {}
67262 67264 {}
67264 67265 {}
67266 67267 {}
67272 67274 {}
67270 67273 {}
67273 67275 {}
67275 67276 {}
67278 67279 {}
67277 67278 {}
67285 67287 {}
67283 67286 {}
67286 67288 {}
67288 67289 {}
67290 67291 {}
67296 67298 {}
67294 67297 {}
67297 67299 {}
67299 67300 {}
67302 67303 {}
67301 67302 {}
67309 67311 {}
67307 67310 {}
67310 67312 {}
67312 67313 {}
67314 67315 {}
67320 67322 {}
67318 67321 {}
67321 67323 {}
67323 67324 {}
67325 67326 {}
67331 67333 {}
67329 67332 {}
67332 67334 {}
67334 67335 {}
67336 67337 {}
67342 67344 {}
67340 67343 {}
67343 67345 {}
67345 67346 {}
67347 67348 {}
67353 67355 {}
67351 67354 {}
67354 67356 {}
67356 67357 {}
67358 67359 {}
67364 67366 {}
67362 67365 {}
67365 67367 {}
67367 67368 {}
67370 67371 {}
67369 67370 {}
67377 67379 {}
67375 67378 {}
67378 67380 {}
67380 67381 {}
67383 67384 {}
67382 67383 {}
67390 67392 {}
67388 67391 {}
67391 67393 {}
67393 67394 {}
67395 67396 {}
67401 67403 {}
67399 67402 {}
67402 67404 {}
67404 67405 {}
67407 67408 {}
67406 67407 {}
67414 67416 {}
67412 67415 {}
67415 67417 {}
67417 67418 {}
67420 67421 {}
67419 67420 {}
67427 67429 {}
67425 67428 {}
67428 67430 {}
67430 67431 {}
67432 67433 {}
67438 67440 {}
67436 67439 {}
67439 67441 {}
67441 67442 {}
67443 67444 {}
67449 67451 {}
67447 67450 {}
67450 67452 {}
67452 67453 {}
67455 67456 {}
67454 67455 {}
67462 67464 {}
67460 67463 {}
67463 67465 {}
67465 67466 {}
67468 67469 {}
67467 67468 {}
67475 67477 {}
67473 67476 {}
67476 67478 {}
67478 67479 {}
67481 67482 {}
67480 67481 {}
67488 67490 {}
67486 67489 {}
67489 67491 {}
67491 67492 {}
67494 67495 {}
67493 67494 {}
67501 67503 {}
67499 67502 {}
67502 67504 {}
67504 67505 {}
67507 67508 {}
67506 67507 {}
67514 67516 {}
67512 67515 {}
67515 67517 {}
67517 67518 {}
67520 67521 {}
67519 67520 {}
67527 67529 {}
67525 67528 {}
67528 67530 {}
67530 67531 {}
67533 67534 {}
67532 67533 {}
67540 67542 {}
67538 67541 {}
67541 67543 {}
67543 67544 {}
67546 67547 {}
67545 67546 {}
67553 67555 {}
67551 67554 {}
67554 67556 {}
67556 67557 {}
67558 67559 {}
67564 67566 {}
67562 67565 {}
67565 67567 {}
67567 67568 {}
67569 67570 {}
67575 67577 {}
67573 67576 {}
67576 67578 {}
67578 67579 {}
67581 67582 {}
67580 67581 {}
67588 67590 {}
67586 67589 {}
67589 67591 {}
67591 67592 {}
67593 67594 {}
67599 67601 {}
67597 67600 {}
67600 67602 {}
67602 67603 {}
67604 67605 {}
67610 67612 {}
67608 67611 {}
67611 67613 {}
67613 67614 {}
67616 67617 {}
67615 67616 {}
67623 67625 {}
67621 67624 {}
67624 67626 {}
67626 67627 {}
67628 67629 {}
67634 67636 {}
67632 67635 {}
67635 67637 {}
67637 67638 {}
67640 67641 {}
67639 67640 {}
67647 67649 {}
67645 67648 {}
67648 67650 {}
67650 67651 {}
67652 67653 {}
67658 67660 {}
67656 67659 {}
67659 67661 {}
67661 67662 {}
67663 67664 {}
67669 67671 {}
67667 67670 {}
67670 67672 {}
67672 67673 {}
67675 67676 {}
67674 67675 {}
67682 67684 {}
67680 67683 {}
67683 67685 {}
67685 67686 {}
67688 67689 {}
67687 67688 {}
67695 67697 {}
67693 67696 {}
67696 67698 {}
67698 67699 {}
67701 67702 {}
67700 67701 {}
67708 67710 {}
67706 67709 {}
67709 67711 {}
67711 67712 {}
67713 67714 {}
67719 67721 {}
67717 67720 {}
67720 67722 {}
67722 67723 {}
67724 67725 {}
67730 67732 {}
67728 67731 {}
67731 67733 {}
67733 67734 {}
67735 67736 {}
67741 67743 {}
67739 67742 {}
67742 67744 {}
67744 67745 {}
67746 67747 {}
67752 67754 {}
67750 67753 {}
67753 67755 {}
67755 67756 {}
67758 67759 {}
67757 67758 {}
67765 67767 {}
67763 67766 {}
67766 67768 {}
67768 67769 {}
67770 67771 {}
67776 67778 {}
67774 67777 {}
67777 67779 {}
67779 67780 {}
67781 67782 {}
67787 67789 {}
67785 67788 {}
67788 67790 {}
67790 67791 {}
67792 67793 {}
67798 67800 {}
67796 67799 {}
67799 67801 {}
67801 67802 {}
67804 67805 {}
67803 67804 {}
67811 67813 {}
67809 67812 {}
67812 67814 {}
67814 67815 {}
67816 67817 {}
67822 67824 {}
67820 67823 {}
67823 67825 {}
67825 67826 {}
67828 67829 {}
67827 67828 {}
67835 67837 {}
67833 67836 {}
67836 67838 {}
67838 67839 {}
67840 67841 {}
67846 67848 {}
67844 67847 {}
67847 67849 {}
67849 67850 {}
67851 67852 {}
67857 67859 {}
67855 67858 {}
67858 67860 {}
67860 67861 {}
67863 67864 {}
67862 67863 {}
67870 67872 {}
67868 67871 {}
67871 67873 {}
67873 67874 {}
67875 67876 {}
67881 67883 {}
67879 67882 {}
67882 67884 {}
67884 67885 {}
67887 67888 {}
67886 67887 {}
67894 67896 {}
67892 67895 {}
67895 67897 {}
67897 67898 {}
67900 67901 {}
67899 67900 {}
67907 67909 {}
67905 67908 {}
67908 67910 {}
67910 67911 {}
67913 67914 {}
67912 67913 {}
67920 67922 {}
67918 67921 {}
67921 67923 {}
67923 67924 {}
67925 67926 {}
67931 67933 {}
67929 67932 {}
67932 67934 {}
67934 67935 {}
67936 67937 {}
67942 67944 {}
67940 67943 {}
67943 67945 {}
67945 67946 {}
67948 67949 {}
67947 67948 {}
67955 67957 {}
67953 67956 {}
67956 67958 {}
67958 67959 {}
67960 67961 {}
